100 495 275
3
10
7
2
9
6
3
1
6
8
3
6
2
8
7
8
4
5
7
2
6
1
7
2
1
8
3
9
2
7
3
5
4
5
9
6
2
3
4
3
7
10
1
5
2
10
9
7
9
7
6
4
10
9
2
3
4
9
2
4
2
1
3
6
10
4
5
2
9
9
7
2
9
2
6
3
7
9
5
10
10
1
3
2
1
8
9
2
6
9
8
4
9
10
6
5
6
9
1
4
1 42 10
1 45 7
1 67 9
1 79 1
1 88 10
1 92 5
1 100 9
2 6 8
2 11 5
2 13 10
2 23 6
2 34 3
2 38 9
2 40 3
2 41 9
2 53 10
2 59 1
2 61 7
2 66 1
2 76 7
2 93 6
3 15 2
3 17 7
3 28 7
3 40 8
3 69 6
3 77 3
3 94 1
4 52 4
4 62 5
4 69 5
4 75 10
4 83 2
4 91 7
5 15 2
5 19 8
5 20 2
5 27 9
5 33 8
5 50 9
5 52 5
5 78 8
6 11 3
6 51 9
6 54 2
6 56 8
6 57 3
6 60 8
6 63 8
6 73 5
6 97 10
7 11 5
7 20 10
7 33 5
7 49 6
7 67 6
7 74 6
7 80 9
7 85 8
7 89 5
7 90 7
8 22 8
8 25 1
8 42 3
8 54 4
8 64 1
8 65 6
8 88 4
8 96 7
8 100 1
9 24 6
9 30 1
9 53 8
9 57 1
9 61 8
9 65 9
9 80 6
9 85 2
9 90 3
9 92 6
9 98 7
10 18 10
10 47 3
10 53 4
10 54 10
10 62 7
10 65 5
10 66 6
10 72 2
10 75 6
10 78 1
10 80 10
10 92 8
10 94 1
11 19 5
11 36 7
11 52 6
11 61 1
11 63 3
11 64 1
11 82 2
11 85 6
11 89 7
11 90 5
11 92 2
12 15 10
12 25 5
12 30 9
12 43 5
12 48 2
12 57 1
12 61 7
12 62 6
12 86 10
12 93 5
12 97 10
12 98 4
12 99 8
13 16 6
13 25 5
13 27 10
13 39 9
13 43 4
13 49 1
13 58 9
13 61 2
13 73 4
13 79 5
13 84 6
14 19 2
14 21 10
14 52 4
14 56 7
14 65 7
14 73 4
14 83 1
15 57 2
15 59 5
15 89 6
15 98 5
16 21 3
16 22 8
16 57 4
16 63 2
16 66 3
16 78 4
16 82 5
16 93 1
16 97 9
17 30 1
17 45 2
17 56 7
17 58 5
17 68 3
17 69 4
17 85 9
17 98 8
17 100 2
18 29 9
18 35 3
18 43 8
18 54 2
18 75 3
18 78 10
18 89 5
19 26 7
19 29 8
19 35 7
19 43 3
19 50 3
19 60 10
19 63 6
19 99 10
20 48 9
20 53 7
20 63 5
20 64 2
20 70 9
20 77 10
20 89 7
20 94 1
20 100 10
21 28 9
21 41 1
21 42 1
21 44 6
21 68 2
21 91 1
21 97 4
21 98 6
22 44 9
22 45 8
22 52 5
22 54 2
22 56 6
22 59 4
22 65 1
22 66 3
23 31 4
23 37 2
23 39 5
23 44 6
23 64 3
23 69 2
23 79 7
23 93 3
23 96 7
23 98 3
24 30 6
24 38 10
24 44 6
24 63 3
24 64 1
24 73 4
24 79 7
24 80 7
24 99 5
25 27 1
25 30 3
25 39 3
25 41 1
25 67 4
25 71 4
26 32 6
26 33 8
26 38 7
26 39 3
26 57 5
26 59 10
26 65 9
26 83 1
26 85 10
26 94 4
26 98 2
27 57 2
27 58 9
27 75 6
27 93 6
28 33 4
28 51 7
28 59 1
28 79 4
28 85 9
28 93 3
28 97 2
29 36 1
29 39 5
29 48 10
29 50 5
29 70 6
29 96 9
30 32 2
30 34 7
30 46 7
30 60 3
30 79 1
30 80 3
31 33 10
31 39 7
31 43 1
31 45 6
31 51 10
31 57 2
31 66 6
32 33 6
32 43 2
32 44 2
32 61 8
32 71 2
32 77 2
32 100 3
33 38 8
33 42 4
33 50 4
33 51 2
33 56 3
33 95 4
34 38 9
34 60 8
34 79 5
34 81 5
35 36 8
35 48 7
35 61 5
35 69 7
35 72 4
35 73 2
35 74 10
35 76 7
35 83 3
35 85 4
35 86 2
36 52 1
36 53 4
36 56 1
36 73 10
36 79 10
36 90 8
37 69 5
37 70 2
37 75 8
37 86 2
37 98 4
38 40 3
38 41 2
38 45 7
38 77 3
38 89 5
38 93 6
38 96 2
39 53 1
39 73 6
39 74 4
40 50 3
40 53 4
40 62 6
40 70 4
40 87 6
40 88 4
40 100 10
41 51 1
41 84 4
42 44 2
42 45 3
42 49 1
42 50 5
42 59 6
42 65 5
42 90 9
42 93 6
43 60 2
43 64 4
43 87 10
43 90 3
44 49 9
44 53 4
44 60 9
44 66 4
44 99 2
45 46 1
45 53 5
45 62 6
45 71 6
45 90 7
45 95 4
45 96 8
45 99 8
46 61 2
46 62 4
46 63 9
46 73 8
46 79 2
46 82 5
46 86 4
46 90 8
47 50 1
47 58 2
47 85 10
47 96 3
48 58 3
48 67 1
48 85 6
48 87 3
48 91 1
48 92 6
49 52 10
49 81 1
49 87 7
49 96 6
50 60 4
50 67 10
50 72 8
50 76 1
50 78 1
50 79 4
50 84 7
50 86 5
50 91 4
50 100 1
51 60 4
51 61 10
51 90 1
51 95 9
51 97 6
52 89 2
53 56 10
54 64 10
54 66 2
54 82 9
54 83 3
54 94 6
54 98 1
55 73 7
55 77 10
55 90 9
55 97 3
56 64 5
56 67 5
56 74 7
57 60 7
57 64 2
57 70 6
57 74 4
57 82 10
57 86 1
57 94 4
57 99 2
58 67 6
58 72 5
59 68 4
59 72 5
59 91 1
59 96 7
59 99 8
60 61 6
60 64 10
60 66 5
60 72 3
60 74 8
60 77 1
60 80 6
60 81 9
61 83 4
61 90 2
61 92 8
61 95 4
62 63 1
62 71 10
62 81 4
62 84 9
62 88 6
63 66 3
63 68 7
63 71 1
63 73 10
63 82 7
64 77 8
64 99 3
65 73 6
65 78 2
66 71 9
66 72 3
66 82 7
66 93 5
66 94 5
67 71 3
67 74 6
68 76 2
68 89 6
68 93 8
70 72 8
70 80 3
70 84 6
70 94 1
70 95 1
71 89 8
72 73 5
72 79 9
72 83 8
73 91 1
74 81 7
74 83 10
74 85 9
75 95 10
76 77 5
76 85 1
76 92 2
77 78 8
77 80 7
77 86 3
78 85 4
78 86 2
78 87 5
78 91 1
78 97 4
79 87 1
79 93 1
80 89 6
81 90 6
82 87 3
83 86 5
83 93 9
83 97 4
84 92 8
85 89 6
85 93 5
86 94 9
86 97 7
87 100 6
88 99 7
90 92 1
90 98 4
91 96 7
92 95 7
97 99 6
