100 3465 367
3
9
8
8
4
5
9
7
6
9
5
10
4
9
9
3
8
8
9
10
3
10
6
9
6
2
10
5
5
2
2
4
4
7
9
1
10
4
7
6
5
3
9
9
9
2
6
4
6
1
6
10
8
4
7
2
2
10
10
10
5
8
1
10
1
7
3
3
9
8
4
3
2
6
1
4
7
4
6
7
6
9
7
2
4
1
4
10
8
9
9
3
6
3
9
3
10
2
2
5
1 4 8
1 6 6
1 7 10
1 8 1
1 10 8
1 12 7
1 14 10
1 16 3
1 17 7
1 18 4
1 19 3
1 20 10
1 21 1
1 22 6
1 23 1
1 24 3
1 25 9
1 26 4
1 27 6
1 28 3
1 30 1
1 33 6
1 34 2
1 35 7
1 36 5
1 37 3
1 38 1
1 39 9
1 40 9
1 41 5
1 42 5
1 44 4
1 45 3
1 46 4
1 47 5
1 51 1
1 52 6
1 54 6
1 55 7
1 58 7
1 59 5
1 60 10
1 61 8
1 62 8
1 64 1
1 66 2
1 67 3
1 69 10
1 70 1
1 71 5
1 72 9
1 75 2
1 77 7
1 80 2
1 82 6
1 83 5
1 86 7
1 89 4
1 90 4
1 94 10
1 97 9
1 99 10
1 100 7
2 3 2
2 4 10
2 5 2
2 6 7
2 7 2
2 8 6
2 9 8
2 10 6
2 11 7
2 14 9
2 15 1
2 17 4
2 19 3
2 20 4
2 21 5
2 23 10
2 25 5
2 26 9
2 28 4
2 30 8
2 33 1
2 34 3
2 38 10
2 40 7
2 42 8
2 43 4
2 45 6
2 46 7
2 47 2
2 48 5
2 49 9
2 50 7
2 52 8
2 53 9
2 54 1
2 56 9
2 57 4
2 58 9
2 59 2
2 60 5
2 61 4
2 62 3
2 63 8
2 64 5
2 70 4
2 71 2
2 72 8
2 73 3
2 74 2
2 75 6
2 78 6
2 79 7
2 81 3
2 82 10
2 83 5
2 87 8
2 88 5
2 91 9
2 92 1
2 93 7
2 94 1
2 95 4
2 96 3
2 97 5
2 99 4
3 6 5
3 7 4
3 8 4
3 11 10
3 12 9
3 13 6
3 14 9
3 15 10
3 16 2
3 18 3
3 20 10
3 21 7
3 22 5
3 23 3
3 27 9
3 28 3
3 29 5
3 30 2
3 31 8
3 33 7
3 35 9
3 37 5
3 38 10
3 39 6
3 42 1
3 43 5
3 44 4
3 45 5
3 47 10
3 50 9
3 54 2
3 56 10
3 58 9
3 59 4
3 60 4
3 61 1
3 63 10
3 64 3
3 65 4
3 66 5
3 67 1
3 69 10
3 70 2
3 72 2
3 74 9
3 75 3
3 77 10
3 79 8
3 80 9
3 81 4
3 82 2
3 84 4
3 85 1
3 87 5
3 88 2
3 90 3
3 91 5
3 92 6
3 93 10
3 95 6
3 96 2
3 97 10
3 98 2
3 99 3
3 100 9
4 6 5
4 8 4
4 9 8
4 10 5
4 12 4
4 13 7
4 14 9
4 18 6
4 19 5
4 20 3
4 21 8
4 22 9
4 23 2
4 24 8
4 25 2
4 26 10
4 27 9
4 29 4
4 30 2
4 31 8
4 32 3
4 36 1
4 37 7
4 38 7
4 39 5
4 40 4
4 41 8
4 43 10
4 44 3
4 47 6
4 48 10
4 49 1
4 51 10
4 52 6
4 53 4
4 54 8
4 56 9
4 57 2
4 58 2
4 59 5
4 60 2
4 61 4
4 62 3
4 63 1
4 65 5
4 66 3
4 67 9
4 70 7
4 71 10
4 72 10
4 73 8
4 74 5
4 75 4
4 76 9
4 83 7
4 84 10
4 85 8
4 86 10
4 87 2
4 89 1
4 91 6
4 92 1
4 94 9
4 96 9
4 97 4
4 98 7
4 99 10
5 6 10
5 7 8
5 8 3
5 10 1
5 11 6
5 12 9
5 15 3
5 16 6
5 17 4
5 18 3
5 20 5
5 21 9
5 22 2
5 23 8
5 25 8
5 27 2
5 28 5
5 29 4
5 30 8
5 33 9
5 34 1
5 35 7
5 36 2
5 39 8
5 41 10
5 42 6
5 43 10
5 44 9
5 45 6
5 47 8
5 48 3
5 49 2
5 51 9
5 52 7
5 53 4
5 55 5
5 56 3
5 57 6
5 59 3
5 61 10
5 64 6
5 65 6
5 66 6
5 67 5
5 68 4
5 69 6
5 71 10
5 72 2
5 73 5
5 74 7
5 76 1
5 78 2
5 79 3
5 80 5
5 81 7
5 83 1
5 84 2
5 85 6
5 88 6
5 89 2
5 90 1
5 92 3
5 93 8
5 94 7
5 95 4
5 96 1
5 97 5
5 99 8
5 100 7
6 9 1
6 11 3
6 14 4
6 15 4
6 16 9
6 17 10
6 19 3
6 20 3
6 21 3
6 22 9
6 23 5
6 24 4
6 25 9
6 26 7
6 29 2
6 31 10
6 32 10
6 33 4
6 36 3
6 38 5
6 41 9
6 42 6
6 44 9
6 45 5
6 46 7
6 47 8
6 49 10
6 50 5
6 51 10
6 52 2
6 53 6
6 54 7
6 55 8
6 56 9
6 58 7
6 59 5
6 60 5
6 61 4
6 62 4
6 63 5
6 64 9
6 65 9
6 66 9
6 67 10
6 69 6
6 71 5
6 72 8
6 73 4
6 75 6
6 76 9
6 77 8
6 78 1
6 79 6
6 80 10
6 81 9
6 82 5
6 83 7
6 84 1
6 85 2
6 86 8
6 87 6
6 88 10
6 89 1
6 90 1
6 91 9
6 92 7
6 93 1
6 94 10
6 95 6
6 98 5
6 99 10
6 100 3
7 8 3
7 10 3
7 13 2
7 14 8
7 15 10
7 16 1
7 17 7
7 18 8
7 19 2
7 20 1
7 22 7
7 24 1
7 26 1
7 28 6
7 29 6
7 30 2
7 31 4
7 32 2
7 33 10
7 34 5
7 37 10
7 38 5
7 39 3
7 40 8
7 41 4
7 42 2
7 43 10
7 44 3
7 45 8
7 46 10
7 49 9
7 51 1
7 54 9
7 55 10
7 56 3
7 59 4
7 60 8
7 61 7
7 62 3
7 63 4
7 64 2
7 65 10
7 66 6
7 67 2
7 69 7
7 70 9
7 72 5
7 74 1
7 75 1
7 77 2
7 78 8
7 79 6
7 80 6
7 83 10
7 84 1
7 85 6
7 86 4
7 89 10
7 90 9
7 91 8
7 92 2
7 93 1
7 96 5
7 97 4
7 99 4
7 100 7
8 10 8
8 12 8
8 13 8
8 16 7
8 17 4
8 18 1
8 20 1
8 24 4
8 26 9
8 28 1
8 30 5
8 32 7
8 34 8
8 35 2
8 36 4
8 37 6
8 38 10
8 39 6
8 41 4
8 42 9
8 43 5
8 44 6
8 45 3
8 46 3
8 47 10
8 48 1
8 49 1
8 51 9
8 52 1
8 53 5
8 54 7
8 55 6
8 57 4
8 60 5
8 61 6
8 62 1
8 63 8
8 64 9
8 65 9
8 66 5
8 67 6
8 70 7
8 71 7
8 72 8
8 73 9
8 74 10
8 75 8
8 77 3
8 79 2
8 80 4
8 81 4
8 84 8
8 85 10
8 87 5
8 88 7
8 89 6
8 90 1
8 92 6
8 93 4
8 94 4
8 95 3
8 96 4
8 97 6
8 98 7
8 99 3
8 100 5
9 10 6
9 11 1
9 12 6
9 13 4
9 14 7
9 15 8
9 16 2
9 17 1
9 18 8
9 19 3
9 21 7
9 22 4
9 24 9
9 25 7
9 26 3
9 27 3
9 28 6
9 30 10
9 31 4
9 32 9
9 33 1
9 35 10
9 38 4
9 40 6
9 41 8
9 42 8
9 43 8
9 44 7
9 45 7
9 46 7
9 47 4
9 49 4
9 50 5
9 51 8
9 53 7
9 57 4
9 58 3
9 60 3
9 65 3
9 66 10
9 67 2
9 68 3
9 69 2
9 72 4
9 73 4
9 74 8
9 77 4
9 78 2
9 79 10
9 81 9
9 83 5
9 84 9
9 87 6
9 88 5
9 89 5
9 90 3
9 91 5
9 92 2
9 93 1
9 94 9
9 95 5
9 97 10
9 98 8
9 99 10
9 100 4
10 11 8
10 12 4
10 13 3
10 14 6
10 15 1
10 16 10
10 17 8
10 18 10
10 20 5
10 21 5
10 22 1
10 23 1
10 24 6
10 25 4
10 26 10
10 27 8
10 28 10
10 29 2
10 30 6
10 32 10
10 33 7
10 34 5
10 35 10
10 36 4
10 37 1
10 39 9
10 40 10
10 41 1
10 43 8
10 45 2
10 47 2
10 48 1
10 49 8
10 50 9
10 51 2
10 52 3
10 53 4
10 54 4
10 56 1
10 57 6
10 59 3
10 61 10
10 62 9
10 64 10
10 65 10
10 67 8
10 68 5
10 69 1
10 70 1
10 71 2
10 72 1
10 74 3
10 75 3
10 77 9
10 78 6
10 79 9
10 80 4
10 81 2
10 82 10
10 83 10
10 84 1
10 85 1
10 87 9
10 88 3
10 91 9
10 92 9
10 93 7
10 97 6
10 98 8
10 99 8
10 100 1
11 12 6
11 17 2
11 18 9
11 19 3
11 22 10
11 24 6
11 26 5
11 29 6
11 31 10
11 32 4
11 37 5
11 39 4
11 40 8
11 42 3
11 43 7
11 44 9
11 46 4
11 50 10
11 51 8
11 52 4
11 54 10
11 55 6
11 56 7
11 57 8
11 58 7
11 63 3
11 64 7
11 66 9
11 67 4
11 68 9
11 69 9
11 71 7
11 72 1
11 73 7
11 75 4
11 76 7
11 77 8
11 78 3
11 80 6
11 81 9
11 82 9
11 83 1
11 84 5
11 86 10
11 87 9
11 89 10
11 90 5
11 91 5
11 93 5
11 94 7
11 95 7
11 97 6
11 98 9
11 99 8
11 100 2
12 13 8
12 14 5
12 16 8
12 17 9
12 19 2
12 20 4
12 21 10
12 22 10
12 23 7
12 24 7
12 25 6
12 27 4
12 28 1
12 29 9
12 30 9
12 31 6
12 32 5
12 33 4
12 34 2
12 35 7
12 36 1
12 38 3
12 39 4
12 40 10
12 41 3
12 42 1
12 43 8
12 44 7
12 45 9
12 46 2
12 47 7
12 48 3
12 49 4
12 50 2
12 51 10
12 55 6
12 57 4
12 58 4
12 60 3
12 62 7
12 64 10
12 65 6
12 66 1
12 68 6
12 70 5
12 71 4
12 74 8
12 76 1
12 77 9
12 78 8
12 82 1
12 83 1
12 84 4
12 85 8
12 86 1
12 90 4
12 91 1
12 93 2
12 95 5
12 96 2
12 97 2
12 100 8
13 14 5
13 15 8
13 17 6
13 19 9
13 21 3
13 26 3
13 27 9
13 28 2
13 30 8
13 31 8
13 32 5
13 33 6
13 34 7
13 35 7
13 36 5
13 37 10
13 38 2
13 39 9
13 40 7
13 43 2
13 44 6
13 46 7
13 47 10
13 48 7
13 50 1
13 51 2
13 52 9
13 54 2
13 55 2
13 56 8
13 57 4
13 58 7
13 59 9
13 60 4
13 61 1
13 62 9
13 63 5
13 64 3
13 66 4
13 67 9
13 68 10
13 72 9
13 73 3
13 74 7
13 76 1
13 80 7
13 81 10
13 83 7
13 84 9
13 86 1
13 87 3
13 88 1
13 89 7
13 91 5
13 95 3
13 96 8
13 97 6
13 98 6
13 99 6
14 17 8
14 18 9
14 19 5
14 21 3
14 22 4
14 24 2
14 25 2
14 27 3
14 28 5
14 29 2
14 30 7
14 31 7
14 34 10
14 35 10
14 36 8
14 37 7
14 38 9
14 40 9
14 41 7
14 42 7
14 43 10
14 44 2
14 45 9
14 46 2
14 47 5
14 49 10
14 56 5
14 57 4
14 58 6
14 59 4
14 60 2
14 61 6
14 63 8
14 65 10
14 66 1
14 67 2
14 68 7
14 72 7
14 73 8
14 74 9
14 75 2
14 76 7
14 77 7
14 79 9
14 80 7
14 82 7
14 83 1
14 84 1
14 85 9
14 86 2
14 90 8
14 91 4
14 92 1
14 93 5
14 94 5
14 95 5
14 97 8
14 98 9
14 99 2
15 16 9
15 17 2
15 20 4
15 21 8
15 22 4
15 24 7
15 28 10
15 32 3
15 33 9
15 34 2
15 35 4
15 36 8
15 38 1
15 39 9
15 40 7
15 42 5
15 43 10
15 44 2
15 45 5
15 46 1
15 49 6
15 50 2
15 51 4
15 52 9
15 55 5
15 56 1
15 57 8
15 58 5
15 60 9
15 61 10
15 62 3
15 63 3
15 64 9
15 66 6
15 69 6
15 70 10
15 72 10
15 73 8
15 75 4
15 77 3
15 79 10
15 81 10
15 82 4
15 83 3
15 84 5
15 85 3
15 88 9
15 89 9
15 90 5
15 92 4
15 93 8
15 95 10
15 96 10
15 98 10
15 99 3
15 100 4
16 17 4
16 18 2
16 19 9
16 20 8
16 21 4
16 22 1
16 23 6
16 25 6
16 26 5
16 27 5
16 28 5
16 32 1
16 33 8
16 34 1
16 35 7
16 38 8
16 39 9
16 40 4
16 41 8
16 42 9
16 43 1
16 45 9
16 46 1
16 47 5
16 48 5
16 49 1
16 52 6
16 53 2
16 55 8
16 56 1
16 58 10
16 61 10
16 62 8
16 63 10
16 64 2
16 65 3
16 66 7
16 67 6
16 68 10
16 69 9
16 70 2
16 74 9
16 76 2
16 80 10
16 81 4
16 83 6
16 85 8
16 86 10
16 87 6
16 88 10
16 89 8
16 91 9
16 92 2
16 93 3
16 94 2
16 95 5
16 96 7
16 97 10
16 98 6
16 100 2
17 19 2
17 20 6
17 22 6
17 24 2
17 25 4
17 26 7
17 27 9
17 29 9
17 32 6
17 34 8
17 36 5
17 37 2
17 38 5
17 39 5
17 40 6
17 42 6
17 44 4
17 45 1
17 46 1
17 47 5
17 48 3
17 50 9
17 51 9
17 52 8
17 53 9
17 54 1
17 55 4
17 56 3
17 57 5
17 58 1
17 59 5
17 60 9
17 62 3
17 63 2
17 64 5
17 65 3
17 66 7
17 70 1
17 71 1
17 74 3
17 76 9
17 78 3
17 79 9
17 81 1
17 82 4
17 84 9
17 85 1
17 86 3
17 87 5
17 88 3
17 89 3
17 92 1
17 93 1
17 94 1
17 95 10
17 96 8
17 97 4
17 100 5
18 19 3
18 21 10
18 22 9
18 24 3
18 25 10
18 27 3
18 28 7
18 29 4
18 31 2
18 32 2
18 33 3
18 34 9
18 35 3
18 37 2
18 38 5
18 39 2
18 40 8
18 41 6
18 42 3
18 43 5
18 44 8
18 46 7
18 47 2
18 48 4
18 51 6
18 52 3
18 55 1
18 56 4
18 57 1
18 58 6
18 61 8
18 62 7
18 64 4
18 65 1
18 66 8
18 69 5
18 70 8
18 71 5
18 72 6
18 73 6
18 76 5
18 77 4
18 80 6
18 83 1
18 84 6
18 85 10
18 86 5
18 87 1
18 88 5
18 89 3
18 90 3
18 91 10
18 92 7
18 93 2
18 94 3
18 95 3
18 96 7
18 97 9
18 98 10
19 20 6
19 21 5
19 22 6
19 23 5
19 25 7
19 27 10
19 29 7
19 32 7
19 37 5
19 38 3
19 40 9
19 41 1
19 43 10
19 45 5
19 46 10
19 48 10
19 49 7
19 50 6
19 51 6
19 52 3
19 53 1
19 54 4
19 55 4
19 58 3
19 60 4
19 62 4
19 64 4
19 65 2
19 66 10
19 67 4
19 70 3
19 72 4
19 73 3
19 74 1
19 75 8
19 77 4
19 78 10
19 79 4
19 80 7
19 83 3
19 85 10
19 86 8
19 87 3
19 88 5
19 89 2
19 90 8
19 91 3
19 92 3
19 94 4
19 97 3
20 21 7
20 22 4
20 23 8
20 24 10
20 25 1
20 26 10
20 27 1
20 29 10
20 31 9
20 32 1
20 34 9
20 35 10
20 36 9
20 38 8
20 39 8
20 40 5
20 41 4
20 42 2
20 43 10
20 47 5
20 49 4
20 50 4
20 51 3
20 52 9
20 54 9
20 55 7
20 56 6
20 57 5
20 59 4
20 60 3
20 61 2
20 62 7
20 63 7
20 66 7
20 67 7
20 68 9
20 69 5
20 70 1
20 73 2
20 74 1
20 76 8
20 77 8
20 79 5
20 80 9
20 84 3
20 85 4
20 86 3
20 87 7
20 88 2
20 89 1
20 90 7
20 91 10
20 93 8
20 96 10
20 97 1
20 98 5
20 99 7
20 100 8
21 22 5
21 23 7
21 24 7
21 25 8
21 27 2
21 28 5
21 30 2
21 32 3
21 33 6
21 34 3
21 35 6
21 37 9
21 39 7
21 41 6
21 42 7
21 44 6
21 46 6
21 48 4
21 49 6
21 52 7
21 54 7
21 55 8
21 56 1
21 57 7
21 58 4
21 60 3
21 61 8
21 62 6
21 63 3
21 64 8
21 65 6
21 66 1
21 67 4
21 68 5
21 69 9
21 70 4
21 71 4
21 72 9
21 74 8
21 75 2
21 76 8
21 77 9
21 78 5
21 79 5
21 80 10
21 81 2
21 83 8
21 87 6
21 89 7
21 90 4
21 93 7
21 94 3
21 96 6
21 99 7
21 100 8
22 23 6
22 26 1
22 28 6
22 29 10
22 30 6
22 31 7
22 32 5
22 36 6
22 37 2
22 38 10
22 40 9
22 42 1
22 44 4
22 45 1
22 46 3
22 47 4
22 49 7
22 51 9
22 53 1
22 54 5
22 55 7
22 56 6
22 57 4
22 58 5
22 59 3
22 61 4
22 62 9
22 63 3
22 64 3
22 65 4
22 66 7
22 67 1
22 68 4
22 69 3
22 70 7
22 71 5
22 72 10
22 73 5
22 75 1
22 76 5
22 78 9
22 79 5
22 81 4
22 82 10
22 83 4
22 84 6
22 85 7
22 86 6
22 88 10
22 89 9
22 92 10
22 93 8
22 94 10
22 97 10
22 98 1
22 99 2
23 24 2
23 25 4
23 28 10
23 29 5
23 32 4
23 34 2
23 35 6
23 36 1
23 37 4
23 38 5
23 39 4
23 41 8
23 44 5
23 45 2
23 48 1
23 49 2
23 50 5
23 51 4
23 52 8
23 55 3
23 56 9
23 58 6
23 59 2
23 60 7
23 61 2
23 63 5
23 64 8
23 65 4
23 66 7
23 68 7
23 69 5
23 70 10
23 71 9
23 72 1
23 73 3
23 74 3
23 75 8
23 76 3
23 77 5
23 78 9
23 81 9
23 82 4
23 85 9
23 88 1
23 90 6
23 91 5
23 92 4
23 93 2
23 94 5
23 95 2
23 96 6
23 98 5
23 99 3
23 100 7
24 25 7
24 26 7
24 27 7
24 31 5
24 32 7
24 33 4
24 34 10
24 35 1
24 36 7
24 37 10
24 38 2
24 40 4
24 41 4
24 42 10
24 43 2
24 44 7
24 46 6
24 47 3
24 48 3
24 51 5
24 52 10
24 53 7
24 54 4
24 55 4
24 56 1
24 57 6
24 58 1
24 59 1
24 60 7
24 61 7
24 62 3
24 65 9
24 70 10
24 72 8
24 73 8
24 74 5
24 76 1
24 77 9
24 79 8
24 80 9
24 82 6
24 83 4
24 85 7
24 86 4
24 88 5
24 89 7
24 90 5
24 91 7
24 92 2
24 93 7
24 95 9
24 96 10
24 97 6
24 98 9
24 99 9
24 100 9
25 26 8
25 27 4
25 28 9
25 30 3
25 31 1
25 34 3
25 37 3
25 39 5
25 40 8
25 41 2
25 45 6
25 46 8
25 47 7
25 48 2
25 49 10
25 51 7
25 53 2
25 55 7
25 57 1
25 59 4
25 60 6
25 61 8
25 64 1
25 66 2
25 67 8
25 68 10
25 69 4
25 70 4
25 71 5
25 74 6
25 76 9
25 77 2
25 78 10
25 79 1
25 84 3
25 85 10
25 86 6
25 87 4
25 88 10
25 89 6
25 91 1
25 93 4
25 94 10
25 95 1
25 98 5
25 99 3
26 27 8
26 29 6
26 31 9
26 32 8
26 33 4
26 36 3
26 38 3
26 39 6
26 40 7
26 41 3
26 43 3
26 44 3
26 45 10
26 48 2
26 49 8
26 50 4
26 51 4
26 52 2
26 53 10
26 54 9
26 55 1
26 57 6
26 58 2
26 59 4
26 62 2
26 63 10
26 65 1
26 66 6
26 68 10
26 69 5
26 70 2
26 71 7
26 72 2
26 73 4
26 75 1
26 76 7
26 77 2
26 79 9
26 80 3
26 81 5
26 83 5
26 84 1
26 87 10
26 88 10
26 89 8
26 91 10
26 93 4
26 94 4
26 97 5
26 98 9
26 99 5
27 30 2
27 31 10
27 33 2
27 36 9
27 37 1
27 38 2
27 39 10
27 40 2
27 41 3
27 42 9
27 43 4
27 44 4
27 45 8
27 47 7
27 48 7
27 49 4
27 52 6
27 56 8
27 57 10
27 58 2
27 59 3
27 60 8
27 61 8
27 62 10
27 63 4
27 64 2
27 66 8
27 67 6
27 68 7
27 69 6
27 70 1
27 74 9
27 75 9
27 76 6
27 79 3
27 80 5
27 82 4
27 83 4
27 85 2
27 86 10
27 87 9
27 88 3
27 89 5
27 90 10
27 91 7
27 93 8
27 95 9
27 96 5
27 97 8
27 100 3
28 30 2
28 32 4
28 35 3
28 37 4
28 39 2
28 40 8
28 43 5
28 44 3
28 45 7
28 47 8
28 48 1
28 49 1
28 51 9
28 52 10
28 53 8
28 55 5
28 56 5
28 57 6
28 58 6
28 59 9
28 60 3
28 61 10
28 62 4
28 63 7
28 65 5
28 66 1
28 70 2
28 71 10
28 73 3
28 75 9
28 77 5
28 79 1
28 80 2
28 82 7
28 83 10
28 84 10
28 86 7
28 87 7
28 88 2
28 92 8
28 93 6
28 94 2
28 95 6
28 98 1
28 99 8
28 100 5
29 30 5
29 31 10
29 32 10
29 33 2
29 34 8
29 35 10
29 36 1
29 37 6
29 38 9
29 39 6
29 40 9
29 43 7
29 44 3
29 45 4
29 47 1
29 49 8
29 51 6
29 52 6
29 53 7
29 54 1
29 55 4
29 56 2
29 57 8
29 58 3
29 60 2
29 61 6
29 62 9
29 63 6
29 65 9
29 66 2
29 67 8
29 68 10
29 70 10
29 71 5
29 72 7
29 73 6
29 74 2
29 75 6
29 77 8
29 78 10
29 79 3
29 80 3
29 81 7
29 83 2
29 84 9
29 86 6
29 87 1
29 88 5
29 89 4
29 90 10
29 91 10
29 92 5
29 94 4
29 96 5
29 97 3
29 98 4
29 99 8
29 100 7
30 31 3
30 32 9
30 33 1
30 34 2
30 36 9
30 38 10
30 39 2
30 42 8
30 43 10
30 44 1
30 45 1
30 47 10
30 49 5
30 50 3
30 53 5
30 54 1
30 55 1
30 57 7
30 58 7
30 59 2
30 61 10
30 62 5
30 64 8
30 66 1
30 69 1
30 71 1
30 72 3
30 74 10
30 75 7
30 76 9
30 77 4
30 78 9
30 80 7
30 81 8
30 82 3
30 83 4
30 85 9
30 86 10
30 87 3
30 89 7
30 90 3
30 91 5
30 92 2
30 93 9
30 95 2
30 96 7
30 97 5
30 98 5
31 32 4
31 34 4
31 35 7
31 36 6
31 37 2
31 38 1
31 39 4
31 40 3
31 42 2
31 43 10
31 44 6
31 45 1
31 46 3
31 47 4
31 48 6
31 49 5
31 50 7
31 51 4
31 53 10
31 56 1
31 57 10
31 58 3
31 59 5
31 62 1
31 64 6
31 65 6
31 67 4
31 69 8
31 70 1
31 71 4
31 72 2
31 73 4
31 74 10
31 75 6
31 76 5
31 77 7
31 78 4
31 80 9
31 81 4
31 82 10
31 83 5
31 85 9
31 86 5
31 87 8
31 88 6
31 92 9
31 93 1
31 94 3
31 95 1
31 96 7
31 98 2
31 100 4
32 33 9
32 34 1
32 35 7
32 37 8
32 39 8
32 40 3
32 41 1
32 42 6
32 43 6
32 44 6
32 47 7
32 48 9
32 50 2
32 51 2
32 52 4
32 53 4
32 54 4
32 55 2
32 56 4
32 57 9
32 58 1
32 59 2
32 62 9
32 63 10
32 64 8
32 66 3
32 67 8
32 68 8
32 69 6
32 70 8
32 75 9
32 76 3
32 77 3
32 78 4
32 80 6
32 81 5
32 82 8
32 83 8
32 85 7
32 86 1
32 87 6
32 89 7
32 90 2
32 91 4
32 92 5
32 93 10
32 96 2
32 97 7
32 99 7
32 100 7
33 34 7
33 35 10
33 36 7
33 37 4
33 39 5
33 40 3
33 41 6
33 42 4
33 43 10
33 44 10
33 45 7
33 46 2
33 47 1
33 48 4
33 49 1
33 51 6
33 52 1
33 53 9
33 54 10
33 55 9
33 56 8
33 57 9
33 60 2
33 63 2
33 66 4
33 69 6
33 72 10
33 73 3
33 75 9
33 76 8
33 78 7
33 80 5
33 81 1
33 82 3
33 83 4
33 84 7
33 86 5
33 87 2
33 88 2
33 89 1
33 90 8
33 92 8
33 93 9
33 96 10
33 98 7
33 100 1
34 35 8
34 36 5
34 40 9
34 43 5
34 44 8
34 45 6
34 46 6
34 48 4
34 49 5
34 50 5
34 51 5
34 52 10
34 54 5
34 56 6
34 57 1
34 58 5
34 59 9
34 60 9
34 61 5
34 66 4
34 67 8
34 68 5
34 69 8
34 71 2
34 72 8
34 73 1
34 76 5
34 77 7
34 78 4
34 80 3
34 82 4
34 83 7
34 84 5
34 86 3
34 87 1
34 88 5
34 89 1
34 90 6
34 91 9
34 92 4
34 93 3
34 94 1
34 95 7
34 98 8
34 100 7
35 36 2
35 38 8
35 40 7
35 41 4
35 42 8
35 44 3
35 45 3
35 47 8
35 48 2
35 50 6
35 51 9
35 53 6
35 55 2
35 56 3
35 57 10
35 58 6
35 59 2
35 60 9
35 61 9
35 64 8
35 65 9
35 66 1
35 67 6
35 68 5
35 71 9
35 72 2
35 73 8
35 75 9
35 76 3
35 79 8
35 80 10
35 81 8
35 82 10
35 83 7
35 84 10
35 85 10
35 87 1
35 88 9
35 89 9
35 90 9
35 91 4
35 92 3
35 93 9
35 94 7
35 95 7
35 96 10
35 97 6
35 98 6
35 99 9
35 100 5
36 38 3
36 39 10
36 41 5
36 42 10
36 43 3
36 50 8
36 51 9
36 52 8
36 53 2
36 54 2
36 57 8
36 58 6
36 59 10
36 60 10
36 61 3
36 62 1
36 63 3
36 64 8
36 65 8
36 66 6
36 68 8
36 69 2
36 70 7
36 71 1
36 72 1
36 73 10
36 74 10
36 75 6
36 76 4
36 77 4
36 79 1
36 81 4
36 82 4
36 83 8
36 86 4
36 88 6
36 89 7
36 90 1
36 91 10
36 93 10
36 94 10
36 95 5
36 96 9
36 97 2
36 98 3
36 99 10
37 38 5
37 39 2
37 42 10
37 43 5
37 44 7
37 47 4
37 49 5
37 50 6
37 52 2
37 54 7
37 55 9
37 56 10
37 60 8
37 61 6
37 62 4
37 64 7
37 65 9
37 66 4
37 67 6
37 68 8
37 69 8
37 70 4
37 72 9
37 73 8
37 74 8
37 75 3
37 76 7
37 78 2
37 79 3
37 80 9
37 81 6
37 82 6
37 84 4
37 85 3
37 86 9
37 90 9
37 91 5
37 92 9
37 93 3
37 94 6
37 95 1
37 96 1
37 97 4
37 98 3
37 100 4
38 39 2
38 41 2
38 44 6
38 45 2
38 46 8
38 49 8
38 50 6
38 52 10
38 53 4
38 55 9
38 56 9
38 57 6
38 58 3
38 59 8
38 60 7
38 61 4
38 62 7
38 63 5
38 64 8
38 66 7
38 67 6
38 69 3
38 70 5
38 71 2
38 72 2
38 73 7
38 75 10
38 77 1
38 78 6
38 84 1
38 85 7
38 86 1
38 87 7
38 88 9
38 90 10
38 91 2
38 93 7
38 95 9
38 96 8
38 97 7
38 98 4
38 99 1
38 100 10
39 41 4
39 43 1
39 45 8
39 47 9
39 48 3
39 49 8
39 50 7
39 51 10
39 53 7
39 54 2
39 55 5
39 56 4
39 57 6
39 59 5
39 60 2
39 61 9
39 62 3
39 65 4
39 66 1
39 67 8
39 68 7
39 71 10
39 72 4
39 73 3
39 75 10
39 76 8
39 77 1
39 78 4
39 79 7
39 80 5
39 83 8
39 84 5
39 85 9
39 86 2
39 87 9
39 89 10
39 92 3
39 93 3
39 94 8
39 95 9
39 96 4
39 97 1
39 99 7
39 100 3
40 44 9
40 45 10
40 46 9
40 47 9
40 48 3
40 49 6
40 50 9
40 51 2
40 52 10
40 53 6
40 54 10
40 56 5
40 57 6
40 58 3
40 61 4
40 62 4
40 63 4
40 65 3
40 69 10
40 70 2
40 71 7
40 73 8
40 74 2
40 75 8
40 76 3
40 77 4
40 78 8
40 79 10
40 80 3
40 81 6
40 84 3
40 86 10
40 87 5
40 88 10
40 91 3
40 94 6
40 95 7
40 96 10
40 97 10
40 98 10
40 99 10
40 100 1
41 44 2
41 47 1
41 48 10
41 50 5
41 52 5
41 54 5
41 55 2
41 56 10
41 57 3
41 58 4
41 60 5
41 61 10
41 62 5
41 64 5
41 65 1
41 66 9
41 67 3
41 69 6
41 70 9
41 71 3
41 75 2
41 76 10
41 79 2
41 80 7
41 81 4
41 82 3
41 85 2
41 86 7
41 87 2
41 88 9
41 89 5
41 90 8
41 92 10
41 94 5
41 95 8
41 97 4
41 100 6
42 43 10
42 44 8
42 45 2
42 46 1
42 47 6
42 49 8
42 50 4
42 51 10
42 52 4
42 53 4
42 55 1
42 56 3
42 57 9
42 59 9
42 62 7
42 64 9
42 65 7
42 66 2
42 67 7
42 68 9
42 69 9
42 70 7
42 71 8
42 72 1
42 73 3
42 75 3
42 77 9
42 79 2
42 80 3
42 81 6
42 82 8
42 84 10
42 85 9
42 87 9
42 88 10
42 89 6
42 90 5
42 91 9
42 92 8
42 93 6
42 94 7
42 95 4
42 97 8
42 99 8
43 44 10
43 45 10
43 48 6
43 49 10
43 51 8
43 52 10
43 53 6
43 54 10
43 57 8
43 60 6
43 63 4
43 64 2
43 66 9
43 70 4
43 71 5
43 73 8
43 74 8
43 75 10
43 77 9
43 78 10
43 79 6
43 80 1
43 82 2
43 84 2
43 85 3
43 87 10
43 89 10
43 90 8
43 91 9
43 92 9
43 93 9
43 94 2
43 95 5
43 96 7
43 97 10
43 98 5
43 100 8
44 46 8
44 48 5
44 50 5
44 51 1
44 52 5
44 53 8
44 55 3
44 56 3
44 58 3
44 59 10
44 60 5
44 61 4
44 62 10
44 63 3
44 65 2
44 66 1
44 67 4
44 68 10
44 71 8
44 73 2
44 74 3
44 75 5
44 76 2
44 78 9
44 80 6
44 81 8
44 84 5
44 85 8
44 86 9
44 87 5
44 90 1
44 92 2
44 93 6
44 96 9
44 99 6
45 46 9
45 48 5
45 49 1
45 50 7
45 53 7
45 54 9
45 55 9
45 56 4
45 58 9
45 59 4
45 60 1
45 62 3
45 63 7
45 64 1
45 66 9
45 68 10
45 69 1
45 70 4
45 71 10
45 72 9
45 73 1
45 74 3
45 77 1
45 78 3
45 79 3
45 80 4
45 81 3
45 82 8
45 83 2
45 86 7
45 87 3
45 88 9
45 89 3
45 90 2
45 91 6
45 92 1
45 93 10
45 94 2
45 95 7
45 96 6
45 98 1
45 100 8
46 47 10
46 49 1
46 53 4
46 54 2
46 56 10
46 58 1
46 61 6
46 62 9
46 64 9
46 65 10
46 66 1
46 67 5
46 68 4
46 69 9
46 70 8
46 71 9
46 72 8
46 74 4
46 75 10
46 76 10
46 77 3
46 79 10
46 83 9
46 85 9
46 86 5
46 87 1
46 88 8
46 89 9
46 90 7
46 91 3
46 92 5
46 93 7
46 98 10
46 99 5
47 50 7
47 51 6
47 52 2
47 55 10
47 56 8
47 57 3
47 58 7
47 59 2
47 60 5
47 61 1
47 64 7
47 65 4
47 66 1
47 67 2
47 68 5
47 69 6
47 71 6
47 72 4
47 73 4
47 74 3
47 75 3
47 76 5
47 77 5
47 78 4
47 79 5
47 80 2
47 81 5
47 82 5
47 83 1
47 85 1
47 86 3
47 89 2
47 91 2
47 92 2
47 93 6
47 95 4
47 97 3
47 99 10
47 100 8
48 51 2
48 52 1
48 53 4
48 54 4
48 55 2
48 57 7
48 58 8
48 59 2
48 61 9
48 62 6
48 63 1
48 65 6
48 68 2
48 69 3
48 70 10
48 71 3
48 72 7
48 74 1
48 75 8
48 76 6
48 78 8
48 80 5
48 81 6
48 82 10
48 83 4
48 84 2
48 86 1
48 88 1
48 89 5
48 90 4
48 91 8
48 92 5
48 94 8
48 95 6
48 96 6
48 97 8
48 100 1
49 55 7
49 58 3
49 59 4
49 60 2
49 61 10
49 62 3
49 63 7
49 64 2
49 65 5
49 66 10
49 68 6
49 69 9
49 70 1
49 72 2
49 74 8
49 75 7
49 76 8
49 77 3
49 80 2
49 81 9
49 82 1
49 84 8
49 85 1
49 86 6
49 89 10
49 90 2
49 91 7
49 92 4
49 93 4
49 94 2
49 96 10
49 97 2
49 99 5
49 100 5
50 51 10
50 52 10
50 53 6
50 54 3
50 56 1
50 59 7
50 60 8
50 61 4
50 62 10
50 63 3
50 65 9
50 66 2
50 67 5
50 68 2
50 69 3
50 70 7
50 71 1
50 77 6
50 78 7
50 79 3
50 80 5
50 81 4
50 82 8
50 83 10
50 84 8
50 86 4
50 87 6
50 91 2
50 93 6
50 94 10
50 95 6
50 98 5
50 99 7
51 53 2
51 54 4
51 55 9
51 57 6
51 58 3
51 59 5
51 61 10
51 62 2
51 64 9
51 65 9
51 66 10
51 67 10
51 68 3
51 69 6
51 71 10
51 76 7
51 77 8
51 80 4
51 81 1
51 82 10
51 83 5
51 84 10
51 85 6
51 86 6
51 87 6
51 88 10
51 89 3
51 91 6
51 93 1
51 94 2
51 95 10
51 96 9
51 98 1
51 99 10
51 100 3
52 53 7
52 54 4
52 55 9
52 59 9
52 60 3
52 61 10
52 62 1
52 63 1
52 64 10
52 65 6
52 67 5
52 68 4
52 69 4
52 71 2
52 72 8
52 73 4
52 74 3
52 75 7
52 76 9
52 79 9
52 80 9
52 81 6
52 82 3
52 85 5
52 86 5
52 87 4
52 89 1
52 90 10
52 92 7
52 95 2
52 96 2
52 97 3
52 98 5
52 100 10
53 54 8
53 55 2
53 56 8
53 57 10
53 58 1
53 59 6
53 60 3
53 61 2
53 62 8
53 63 9
53 64 8
53 65 9
53 67 2
53 68 6
53 69 4
53 70 5
53 72 1
53 74 6
53 75 3
53 77 6
53 80 6
53 81 6
53 82 4
53 83 10
53 84 4
53 85 3
53 87 10
53 89 8
53 90 6
53 91 4
53 92 3
53 93 9
53 95 3
53 98 10
53 99 2
54 55 5
54 56 8
54 58 5
54 60 5
54 62 10
54 63 9
54 65 10
54 66 3
54 68 9
54 69 10
54 70 2
54 71 1
54 72 1
54 74 9
54 75 6
54 76 9
54 77 3
54 78 8
54 79 5
54 82 1
54 83 7
54 84 9
54 85 8
54 88 7
54 90 5
54 91 4
54 95 3
54 96 2
54 97 5
54 98 3
54 99 6
54 100 3
55 56 5
55 57 1
55 58 5
55 61 5
55 62 8
55 64 7
55 65 2
55 66 2
55 69 7
55 70 6
55 71 9
55 72 10
55 73 7
55 74 10
55 77 9
55 78 4
55 79 9
55 81 8
55 82 3
55 83 7
55 85 5
55 86 4
55 88 2
55 89 7
55 90 8
55 92 1
55 93 7
55 94 5
55 96 4
55 97 5
55 98 8
55 99 10
55 100 9
56 57 5
56 58 8
56 59 7
56 60 3
56 61 7
56 62 5
56 63 5
56 64 10
56 65 10
56 69 2
56 71 4
56 72 8
56 74 6
56 75 2
56 76 5
56 77 8
56 79 1
56 80 10
56 81 6
56 82 4
56 83 1
56 84 1
56 88 10
56 90 4
56 91 6
56 92 5
56 93 4
56 94 5
56 96 7
56 97 4
56 99 3
56 100 4
57 58 1
57 59 1
57 60 2
57 61 9
57 63 9
57 64 4
57 65 6
57 66 4
57 67 3
57 68 8
57 71 9
57 72 10
57 73 6
57 74 8
57 76 9
57 77 2
57 78 8
57 80 4
57 81 2
57 83 6
57 84 1
57 85 5
57 87 3
57 88 9
57 89 8
57 90 9
57 91 2
57 92 8
57 94 2
57 96 4
57 97 6
57 98 10
57 99 6
57 100 5
58 60 4
58 61 3
58 62 4
58 64 6
58 65 1
58 66 9
58 67 10
58 69 4
58 70 6
58 71 7
58 73 4
58 74 8
58 77 6
58 78 6
58 80 4
58 81 3
58 83 9
58 84 6
58 88 4
58 90 6
58 92 8
58 93 6
58 98 9
58 99 3
59 60 8
59 61 10
59 65 5
59 66 2
59 67 4
59 68 4
59 70 8
59 71 2
59 72 9
59 74 9
59 75 2
59 76 7
59 77 2
59 79 6
59 80 9
59 82 4
59 83 1
59 84 6
59 85 8
59 86 1
59 88 8
59 89 2
59 91 1
59 92 9
59 93 1
59 94 4
59 95 8
59 96 2
59 97 1
59 98 7
59 99 9
59 100 3
60 63 1
60 66 3
60 67 6
60 69 3
60 70 7
60 72 1
60 73 5
60 74 2
60 75 5
60 77 2
60 78 5
60 79 5
60 80 9
60 81 1
60 83 7
60 84 1
60 85 8
60 86 5
60 87 7
60 88 4
60 89 10
60 90 3
60 91 9
60 94 2
60 95 4
60 96 6
60 97 4
60 99 8
60 100 2
61 62 7
61 63 10
61 65 9
61 66 10
61 67 6
61 68 1
61 69 5
61 72 8
61 73 1
61 74 2
61 75 6
61 76 10
61 77 2
61 78 7
61 79 3
61 81 10
61 82 5
61 84 9
61 87 8
61 88 4
61 89 7
61 90 3
61 91 7
61 92 10
61 94 8
61 97 8
61 100 3
62 63 4
62 64 1
62 65 9
62 66 8
62 67 3
62 68 10
62 72 3
62 75 3
62 76 5
62 77 2
62 78 9
62 79 2
62 80 8
62 81 2
62 82 6
62 83 3
62 84 1
62 85 7
62 87 10
62 88 8
62 89 1
62 92 5
62 97 6
62 98 10
62 99 5
62 100 7
63 64 3
63 65 1
63 67 5
63 71 8
63 73 5
63 75 8
63 78 7
63 82 2
63 83 2
63 85 4
63 86 8
63 89 8
63 91 1
63 92 3
63 93 5
63 94 8
63 95 1
63 96 5
63 98 7
63 99 5
64 65 9
64 66 1
64 68 6
64 69 8
64 70 10
64 71 6
64 72 4
64 73 3
64 76 1
64 77 1
64 78 6
64 79 3
64 81 7
64 82 1
64 83 3
64 84 6
64 85 7
64 86 2
64 90 7
64 91 2
64 92 2
64 93 2
64 95 9
64 96 3
64 97 10
64 99 6
64 100 2
65 66 3
65 67 2
65 68 4
65 69 5
65 70 4
65 71 3
65 72 3
65 73 2
65 74 1
65 76 10
65 77 7
65 78 9
65 80 5
65 81 8
65 82 5
65 84 6
65 87 8
65 88 5
65 89 8
65 90 2
65 91 7
65 92 10
65 93 6
65 95 7
65 96 4
65 97 2
65 99 9
66 67 5
66 68 4
66 70 3
66 72 4
66 73 7
66 75 3
66 76 1
66 77 5
66 78 9
66 79 2
66 81 2
66 82 8
66 83 2
66 84 5
66 85 2
66 86 10
66 89 5
66 90 9
66 91 6
66 92 5
66 93 1
66 96 2
66 97 8
66 98 4
66 99 3
66 100 4
67 68 6
67 70 4
67 71 7
67 72 6
67 73 4
67 75 9
67 76 7
67 77 8
67 78 2
67 79 9
67 81 2
67 82 7
67 85 7
67 86 6
67 87 3
67 88 9
67 89 5
67 90 6
67 91 2
67 92 5
67 93 6
67 97 3
67 98 8
67 99 4
67 100 1
68 69 7
68 70 9
68 71 4
68 72 2
68 73 5
68 75 2
68 77 5
68 78 8
68 80 10
68 81 1
68 83 6
68 86 5
68 87 7
68 89 3
68 90 2
68 91 2
68 92 2
68 93 4
68 94 7
68 95 10
68 97 8
68 98 1
68 99 2
68 100 10
69 70 5
69 71 6
69 73 2
69 77 6
69 78 5
69 79 4
69 83 4
69 84 6
69 85 1
69 86 8
69 87 3
69 89 2
69 91 8
69 93 9
69 94 5
69 95 5
69 96 8
69 98 1
69 99 7
69 100 7
70 71 8
70 72 4
70 73 4
70 74 6
70 75 6
70 76 2
70 77 3
70 78 9
70 79 7
70 80 1
70 82 5
70 83 7
70 84 2
70 85 1
70 87 4
70 88 3
70 89 1
70 90 5
70 91 7
70 92 8
70 93 10
70 94 4
70 95 8
70 97 7
70 98 2
70 99 10
71 73 2
71 75 7
71 77 6
71 79 3
71 80 10
71 81 3
71 83 6
71 84 7
71 85 6
71 86 2
71 87 1
71 88 10
71 90 5
71 92 10
71 93 8
71 94 8
71 95 2
71 97 1
71 99 3
71 100 5
72 73 5
72 74 2
72 76 10
72 77 5
72 78 2
72 80 2
72 81 8
72 83 10
72 84 3
72 85 5
72 86 3
72 87 6
72 88 5
72 90 5
72 91 1
72 92 8
72 93 7
72 96 4
72 98 6
72 99 1
72 100 7
73 75 8
73 76 9
73 77 6
73 79 1
73 80 10
73 85 1
73 87 7
73 88 5
73 89 2
73 90 1
73 91 6
73 92 5
73 93 4
73 94 4
73 95 3
73 96 3
73 97 10
73 98 4
73 99 3
73 100 3
74 76 5
74 77 3
74 78 5
74 80 1
74 82 8
74 84 2
74 85 3
74 86 7
74 89 1
74 90 4
74 92 5
74 94 1
74 95 7
74 96 4
74 99 7
75 76 8
75 79 7
75 80 6
75 82 6
75 83 4
75 85 2
75 88 7
75 89 10
75 90 9
75 91 10
75 93 9
75 95 9
75 97 5
75 98 3
75 99 1
75 100 7
76 78 8
76 80 10
76 81 9
76 82 7
76 83 9
76 84 10
76 85 4
76 86 5
76 87 5
76 88 1
76 89 10
76 90 1
76 91 1
76 92 7
76 93 8
76 94 9
76 96 4
76 98 5
76 100 8
77 78 2
77 80 3
77 81 1
77 82 4
77 86 4
77 88 8
77 89 8
77 90 5
77 92 7
77 93 3
77 94 9
77 96 8
77 97 8
77 98 7
77 99 6
77 100 3
78 79 7
78 82 3
78 83 2
78 85 8
78 87 1
78 88 4
78 89 6
78 90 8
78 93 6
78 94 7
78 95 6
78 96 1
78 97 5
78 98 6
78 99 1
79 80 3
79 81 7
79 82 4
79 83 7
79 85 8
79 86 10
79 87 9
79 88 8
79 90 4
79 91 2
79 94 9
79 95 7
79 96 10
80 81 5
80 82 2
80 83 5
80 84 1
80 91 3
80 92 10
80 94 9
80 95 6
80 96 3
80 98 8
80 99 5
80 100 10
81 82 5
81 83 7
81 86 7
81 87 1
81 88 8
81 89 4
81 91 6
81 93 9
81 94 10
81 95 3
81 98 5
81 99 1
81 100 8
82 83 6
82 84 5
82 86 1
82 87 9
82 89 7
82 90 8
82 91 3
82 92 7
82 93 1
82 94 9
82 95 5
82 96 1
82 97 2
82 98 6
83 88 6
83 89 7
83 90 1
83 95 7
83 96 10
83 98 7
83 99 7
83 100 9
84 85 6
84 86 6
84 88 3
84 89 8
84 90 10
84 91 6
84 92 10
84 93 5
84 94 5
84 96 7
84 97 7
84 98 6
84 99 5
84 100 6
85 87 7
85 88 4
85 89 9
85 90 7
85 91 2
85 94 1
85 95 10
85 98 9
85 100 4
86 89 2
86 90 9
86 91 2
86 92 6
86 93 9
86 95 3
86 96 8
86 97 7
86 98 4
86 99 10
87 89 8
87 90 5
87 93 10
87 94 2
87 95 5
87 96 6
87 98 1
87 99 7
87 100 6
88 89 5
88 90 6
88 91 9
88 94 10
88 95 2
88 96 1
88 97 2
88 98 7
88 99 1
88 100 5
89 90 2
89 91 2
89 95 2
89 96 5
89 97 3
89 100 3
90 91 8
90 93 4
90 94 2
90 95 5
90 96 9
90 97 9
90 99 8
90 100 7
91 92 6
91 94 9
91 95 10
91 96 8
91 97 4
91 98 9
91 99 5
91 100 7
92 93 6
92 95 9
92 96 7
92 98 9
92 99 5
93 94 4
93 96 9
93 98 7
93 99 5
93 100 2
94 96 3
94 97 3
94 99 4
95 97 3
95 98 3
95 99 2
95 100 1
96 97 3
97 98 7
97 99 4
98 100 4
