100 2475 275
9
4
2
1
3
10
7
8
3
5
10
6
6
2
4
9
6
1
5
6
7
4
9
5
1
8
2
6
10
3
6
8
9
10
9
5
1
7
2
4
8
2
7
1
7
3
10
10
8
2
7
2
6
3
3
3
6
9
8
3
6
4
2
9
3
1
5
5
5
7
5
2
4
8
1
2
7
8
10
8
4
10
7
4
1
1
6
3
2
3
6
8
2
7
6
5
6
2
3
8
1 3 5
1 5 1
1 6 3
1 7 6
1 8 6
1 11 4
1 16 10
1 18 10
1 22 4
1 30 3
1 32 7
1 36 4
1 39 6
1 40 3
1 41 1
1 42 2
1 44 7
1 45 1
1 46 5
1 47 5
1 48 9
1 51 8
1 55 1
1 56 1
1 57 5
1 61 2
1 63 3
1 64 10
1 66 1
1 69 2
1 71 9
1 74 2
1 79 1
1 80 6
1 81 4
1 83 3
1 86 4
1 90 3
1 94 2
1 96 3
1 97 4
1 99 7
2 4 9
2 5 6
2 6 5
2 7 9
2 8 1
2 10 6
2 11 3
2 15 3
2 18 6
2 19 5
2 21 9
2 23 3
2 25 10
2 28 8
2 30 4
2 31 3
2 33 2
2 34 5
2 36 8
2 38 2
2 39 5
2 40 1
2 41 1
2 43 3
2 44 3
2 46 10
2 48 2
2 50 8
2 54 10
2 55 1
2 57 10
2 58 8
2 61 7
2 63 7
2 65 4
2 70 10
2 71 10
2 72 9
2 73 2
2 74 7
2 78 4
2 81 8
2 86 1
2 87 2
2 90 7
2 92 2
2 93 4
2 94 1
2 97 2
2 98 1
3 5 5
3 6 10
3 7 5
3 8 10
3 12 10
3 13 5
3 16 10
3 17 10
3 20 7
3 22 9
3 24 5
3 28 10
3 33 2
3 35 9
3 39 9
3 41 10
3 42 2
3 43 3
3 46 7
3 48 2
3 50 4
3 52 7
3 54 2
3 55 3
3 58 4
3 60 2
3 61 6
3 64 3
3 65 4
3 66 3
3 67 5
3 68 3
3 69 3
3 70 2
3 72 9
3 74 8
3 75 5
3 76 7
3 77 3
3 78 2
3 79 7
3 84 8
3 88 8
3 91 2
3 92 6
3 96 1
3 97 6
3 98 8
3 99 5
3 100 5
4 5 7
4 6 9
4 7 6
4 8 10
4 10 9
4 11 10
4 13 2
4 17 6
4 20 6
4 21 10
4 22 1
4 23 7
4 24 1
4 32 7
4 33 1
4 35 9
4 37 9
4 39 3
4 41 8
4 42 9
4 43 2
4 44 2
4 47 5
4 48 2
4 49 9
4 50 8
4 51 3
4 54 4
4 55 6
4 57 3
4 59 4
4 60 9
4 61 6
4 63 7
4 64 2
4 66 7
4 67 9
4 69 8
4 72 3
4 74 3
4 75 9
4 76 2
4 77 9
4 78 4
4 80 9
4 82 3
4 83 7
4 85 4
4 86 1
4 87 7
4 88 4
4 89 6
4 94 5
4 96 7
4 100 3
5 7 9
5 9 1
5 10 3
5 11 10
5 12 10
5 13 5
5 16 3
5 17 4
5 21 1
5 22 1
5 25 7
5 28 6
5 31 9
5 32 1
5 33 4
5 36 6
5 37 1
5 38 6
5 39 4
5 40 3
5 41 8
5 43 10
5 44 4
5 46 10
5 47 4
5 48 8
5 49 3
5 50 10
5 54 7
5 56 1
5 57 5
5 60 2
5 62 5
5 63 7
5 64 3
5 69 8
5 70 9
5 71 2
5 73 2
5 74 2
5 75 8
5 79 1
5 81 5
5 83 2
5 84 9
5 85 8
5 87 9
5 88 10
5 89 3
5 91 7
5 94 2
5 95 3
5 96 5
5 97 10
5 98 8
5 99 3
6 10 6
6 13 2
6 14 6
6 15 5
6 17 4
6 18 10
6 19 8
6 20 1
6 23 3
6 24 3
6 27 3
6 29 7
6 31 7
6 33 6
6 34 1
6 35 2
6 41 8
6 42 8
6 44 5
6 48 6
6 50 4
6 51 1
6 52 9
6 53 9
6 54 10
6 55 8
6 58 1
6 59 4
6 60 6
6 64 4
6 70 10
6 71 7
6 72 6
6 74 2
6 76 7
6 84 9
6 86 7
6 87 4
6 89 7
6 90 2
6 91 9
6 92 7
6 95 10
6 97 3
6 98 8
6 99 6
7 8 7
7 13 5
7 15 2
7 16 10
7 18 3
7 21 3
7 24 7
7 29 1
7 30 7
7 32 4
7 35 8
7 36 2
7 37 2
7 38 1
7 40 1
7 43 6
7 46 2
7 50 5
7 52 10
7 53 1
7 56 8
7 57 10
7 59 7
7 60 8
7 61 2
7 68 4
7 69 4
7 72 1
7 73 9
7 77 6
7 78 6
7 79 7
7 82 9
7 83 3
7 91 8
7 93 6
7 95 7
7 96 3
8 9 9
8 10 8
8 12 7
8 13 5
8 16 3
8 17 5
8 19 4
8 20 3
8 23 4
8 24 4
8 25 7
8 26 5
8 27 2
8 29 7
8 31 9
8 34 1
8 36 6
8 41 4
8 45 9
8 46 3
8 48 3
8 49 7
8 51 9
8 53 10
8 55 1
8 59 3
8 61 9
8 63 4
8 68 6
8 69 10
8 70 1
8 73 3
8 74 2
8 76 5
8 77 8
8 79 3
8 80 9
8 81 9
8 82 8
8 84 1
8 86 10
8 87 4
8 88 4
8 89 6
8 90 6
8 91 4
8 92 8
8 95 4
8 98 2
9 13 6
9 14 10
9 15 7
9 18 5
9 20 3
9 21 2
9 22 10
9 23 6
9 26 9
9 27 9
9 28 7
9 29 3
9 31 5
9 34 5
9 35 8
9 36 7
9 40 9
9 41 7
9 44 4
9 47 8
9 48 10
9 51 5
9 56 4
9 62 9
9 64 1
9 66 6
9 67 1
9 69 4
9 70 4
9 71 7
9 72 4
9 73 2
9 76 10
9 77 4
9 81 5
9 83 6
9 87 1
9 89 4
9 90 1
9 94 2
9 95 3
9 97 6
9 98 10
9 99 7
10 12 8
10 13 6
10 15 9
10 17 7
10 20 10
10 22 2
10 23 9
10 24 2
10 28 8
10 29 10
10 30 8
10 34 5
10 35 10
10 36 3
10 37 9
10 39 9
10 41 5
10 42 3
10 44 9
10 45 5
10 46 9
10 48 5
10 49 4
10 53 4
10 57 4
10 58 4
10 59 3
10 61 4
10 63 1
10 64 5
10 65 9
10 69 4
10 70 1
10 71 5
10 75 9
10 76 7
10 79 9
10 80 6
10 81 3
10 82 8
10 83 5
10 84 1
10 89 8
10 90 2
10 93 10
10 100 3
11 12 5
11 16 1
11 18 5
11 20 1
11 23 7
11 25 1
11 28 5
11 30 5
11 32 9
11 35 8
11 36 2
11 38 1
11 41 6
11 42 6
11 44 2
11 45 3
11 46 1
11 47 1
11 48 8
11 51 4
11 52 6
11 54 9
11 55 7
11 56 5
11 58 1
11 59 6
11 61 2
11 63 4
11 64 6
11 65 1
11 66 9
11 67 3
11 69 4
11 70 6
11 73 1
11 75 10
11 76 2
11 78 9
11 79 6
11 82 8
11 87 8
11 88 4
11 89 1
11 90 5
11 92 10
11 93 4
11 96 1
11 99 3
11 100 2
12 16 4
12 20 6
12 21 9
12 22 8
12 30 5
12 31 7
12 35 4
12 38 8
12 39 4
12 43 8
12 44 2
12 50 8
12 58 8
12 59 8
12 61 7
12 62 1
12 64 3
12 65 3
12 67 8
12 69 7
12 71 7
12 74 6
12 77 3
12 78 10
12 80 4
12 81 3
12 82 4
12 83 5
12 84 3
12 86 4
12 88 1
12 90 8
12 91 7
12 92 8
12 93 10
12 95 10
12 97 2
12 99 1
13 14 7
13 21 5
13 22 2
13 25 8
13 27 8
13 30 7
13 35 4
13 37 8
13 40 5
13 43 4
13 44 6
13 45 7
13 46 9
13 48 2
13 49 1
13 51 5
13 52 10
13 53 3
13 55 1
13 56 1
13 59 1
13 62 6
13 63 1
13 64 7
13 65 5
13 67 10
13 68 2
13 69 2
13 70 6
13 73 4
13 74 4
13 77 2
13 79 7
13 80 8
13 81 1
13 83 10
13 86 2
13 87 2
13 89 6
13 90 4
13 92 3
13 95 9
13 96 3
13 98 1
13 99 5
13 100 2
14 15 2
14 16 9
14 27 3
14 28 8
14 29 1
14 30 2
14 31 10
14 34 2
14 37 9
14 38 2
14 41 2
14 43 7
14 44 3
14 46 5
14 47 2
14 48 3
14 50 8
14 52 4
14 54 2
14 55 8
14 65 8
14 66 3
14 69 4
14 70 4
14 71 1
14 72 3
14 74 4
14 76 8
14 78 9
14 82 3
14 84 4
14 85 8
14 88 7
14 89 8
14 90 2
14 93 7
14 94 8
14 95 3
14 98 5
14 100 4
15 16 2
15 18 10
15 20 7
15 22 2
15 24 7
15 26 2
15 29 6
15 35 2
15 37 6
15 38 6
15 39 7
15 41 8
15 46 6
15 47 6
15 48 5
15 49 10
15 52 8
15 53 8
15 54 6
15 55 7
15 57 1
15 58 9
15 59 8
15 61 3
15 65 4
15 73 6
15 74 4
15 75 7
15 77 3
15 81 8
15 82 4
15 83 4
15 84 3
15 87 7
15 89 3
15 90 5
15 94 1
15 98 3
15 100 3
16 17 4
16 18 9
16 21 8
16 22 8
16 23 6
16 24 4
16 26 4
16 27 5
16 29 5
16 30 4
16 31 4
16 35 4
16 36 10
16 38 5
16 39 7
16 45 9
16 46 3
16 47 4
16 49 1
16 50 6
16 51 10
16 52 10
16 53 5
16 54 8
16 55 8
16 56 9
16 60 1
16 64 3
16 66 10
16 67 3
16 70 3
16 72 3
16 73 6
16 76 2
16 78 7
16 79 10
16 82 5
16 83 1
16 85 6
16 87 3
16 88 1
16 89 4
16 90 6
16 91 9
16 94 4
16 96 3
16 98 10
16 100 6
17 20 4
17 23 7
17 24 3
17 25 6
17 26 2
17 27 2
17 28 4
17 29 2
17 30 1
17 31 6
17 33 2
17 34 1
17 36 5
17 37 1
17 39 1
17 40 8
17 42 7
17 43 8
17 45 2
17 46 6
17 47 2
17 48 7
17 49 8
17 50 2
17 52 4
17 53 2
17 54 5
17 55 4
17 58 10
17 59 4
17 64 3
17 66 8
17 67 2
17 69 2
17 70 5
17 71 9
17 73 5
17 75 8
17 77 5
17 79 1
17 83 9
17 84 2
17 85 6
17 86 4
17 88 9
17 90 3
17 91 1
17 93 10
17 95 5
17 96 7
17 98 2
17 99 10
17 100 2
18 20 5
18 21 6
18 22 9
18 24 7
18 25 10
18 27 8
18 31 3
18 32 7
18 33 6
18 34 9
18 35 10
18 36 3
18 37 4
18 38 10
18 41 2
18 42 1
18 43 3
18 44 1
18 47 3
18 48 9
18 52 9
18 54 7
18 55 8
18 56 3
18 57 9
18 58 4
18 61 5
18 62 10
18 63 3
18 65 1
18 66 9
18 67 6
18 70 4
18 71 2
18 72 2
18 74 3
18 77 3
18 78 5
18 80 1
18 83 2
18 84 3
18 86 1
18 87 8
18 89 1
18 91 1
18 93 10
18 96 2
18 100 9
19 25 2
19 26 6
19 27 7
19 28 8
19 32 8
19 33 9
19 35 5
19 37 8
19 38 1
19 40 7
19 43 3
19 44 10
19 50 2
19 51 3
19 52 8
19 54 3
19 57 2
19 58 8
19 61 2
19 62 2
19 63 8
19 65 5
19 67 10
19 68 8
19 69 8
19 70 2
19 72 8
19 75 2
19 76 6
19 77 6
19 82 10
19 83 6
19 86 9
19 87 6
19 88 8
19 92 10
19 95 6
19 96 4
19 98 7
20 22 9
20 25 8
20 29 10
20 30 9
20 31 5
20 33 2
20 34 8
20 37 5
20 38 5
20 39 2
20 40 8
20 43 2
20 44 3
20 45 9
20 47 7
20 49 2
20 52 4
20 56 6
20 57 4
20 58 5
20 61 4
20 62 2
20 63 3
20 66 10
20 68 8
20 69 10
20 71 5
20 72 1
20 74 2
20 75 7
20 77 6
20 80 8
20 81 4
20 83 8
20 84 6
20 86 1
20 87 3
20 88 8
20 91 1
20 92 10
20 93 9
20 99 5
21 22 3
21 25 5
21 28 6
21 29 5
21 30 5
21 32 9
21 33 4
21 34 4
21 35 5
21 36 10
21 39 5
21 40 2
21 44 10
21 49 2
21 50 3
21 51 3
21 52 10
21 54 10
21 58 3
21 59 6
21 60 1
21 61 6
21 64 6
21 65 6
21 66 2
21 67 10
21 69 2
21 71 3
21 72 2
21 73 4
21 75 2
21 80 5
21 81 10
21 83 5
21 85 3
21 86 3
21 87 3
21 93 4
21 94 9
21 95 8
21 96 4
22 23 4
22 25 4
22 26 6
22 28 2
22 30 8
22 31 4
22 35 7
22 36 5
22 42 7
22 44 10
22 45 10
22 49 4
22 52 3
22 54 2
22 56 4
22 58 9
22 62 5
22 64 9
22 65 10
22 67 2
22 68 7
22 69 10
22 73 7
22 74 6
22 76 6
22 79 1
22 81 4
22 82 1
22 83 9
22 84 9
22 85 4
22 86 4
22 87 1
22 88 3
22 90 9
22 91 6
22 93 8
22 96 3
22 97 2
23 24 9
23 26 9
23 28 4
23 29 3
23 31 8
23 32 3
23 37 1
23 38 7
23 42 7
23 43 9
23 48 5
23 49 8
23 54 5
23 57 8
23 58 1
23 60 5
23 61 5
23 63 3
23 64 1
23 67 10
23 76 9
23 77 1
23 78 5
23 80 6
23 81 2
23 82 3
23 84 1
23 85 5
23 86 9
23 87 2
23 89 2
23 92 3
23 93 9
23 95 6
23 96 1
23 98 9
24 26 9
24 27 1
24 30 8
24 32 5
24 33 3
24 40 9
24 42 2
24 43 9
24 44 6
24 46 1
24 49 2
24 50 2
24 51 5
24 55 8
24 57 1
24 58 5
24 59 3
24 60 2
24 61 3
24 63 9
24 64 6
24 66 1
24 69 6
24 73 6
24 76 4
24 82 9
24 86 1
24 87 4
24 90 8
24 92 9
24 96 5
24 97 3
24 98 9
24 99 4
24 100 9
25 26 3
25 30 9
25 32 8
25 34 2
25 35 8
25 36 9
25 37 4
25 39 1
25 40 8
25 42 2
25 43 10
25 44 2
25 47 7
25 49 10
25 50 2
25 54 4
25 56 9
25 57 5
25 58 10
25 59 5
25 61 7
25 62 1
25 63 8
25 64 7
25 67 2
25 69 7
25 70 7
25 73 7
25 74 3
25 77 7
25 78 3
25 82 10
25 84 6
25 89 2
25 90 6
25 94 2
25 95 9
25 97 8
25 99 1
26 29 3
26 30 5
26 33 4
26 34 8
26 36 4
26 41 6
26 42 10
26 45 4
26 46 5
26 48 10
26 49 2
26 51 6
26 52 9
26 55 5
26 56 4
26 57 9
26 59 5
26 60 7
26 61 10
26 63 9
26 70 3
26 71 4
26 74 6
26 75 5
26 77 10
26 79 9
26 81 6
26 83 5
26 86 1
26 87 2
26 88 3
26 90 3
26 92 8
26 93 9
26 94 8
26 97 6
26 98 5
27 29 8
27 30 5
27 31 1
27 34 10
27 35 7
27 36 5
27 37 4
27 39 2
27 40 3
27 45 8
27 47 3
27 48 9
27 50 8
27 51 8
27 53 3
27 54 8
27 56 1
27 57 1
27 58 9
27 60 3
27 62 1
27 63 6
27 67 2
27 69 8
27 71 3
27 81 1
27 84 3
27 86 4
27 88 3
27 89 1
27 91 8
27 92 8
27 94 3
27 96 10
27 100 9
28 29 4
28 30 7
28 31 10
28 32 7
28 33 1
28 37 4
28 38 6
28 40 3
28 41 5
28 42 5
28 44 6
28 45 8
28 47 5
28 49 7
28 50 6
28 56 4
28 57 7
28 60 2
28 61 1
28 65 8
28 67 7
28 71 1
28 74 8
28 75 4
28 77 3
28 78 3
28 80 5
28 81 3
28 83 8
28 84 4
28 85 6
28 87 5
28 90 8
28 91 1
28 93 8
28 94 8
28 98 7
28 100 7
29 30 4
29 32 9
29 34 2
29 35 10
29 38 9
29 39 10
29 40 2
29 42 1
29 43 5
29 46 3
29 47 1
29 49 5
29 51 3
29 53 3
29 55 5
29 57 8
29 59 8
29 61 4
29 64 8
29 65 1
29 66 2
29 69 9
29 70 3
29 71 1
29 72 4
29 75 2
29 76 9
29 77 1
29 79 7
29 81 9
29 85 1
29 91 2
29 94 4
29 95 7
29 97 8
29 99 8
30 32 1
30 34 1
30 35 5
30 36 1
30 38 7
30 40 9
30 41 8
30 44 4
30 45 1
30 46 1
30 51 4
30 53 5
30 54 6
30 55 4
30 56 4
30 57 6
30 62 10
30 63 3
30 64 5
30 69 4
30 70 4
30 73 10
30 76 2
30 79 3
30 80 5
30 82 7
30 85 3
30 86 6
30 88 3
30 89 4
30 90 10
30 91 10
30 94 9
30 95 4
30 96 8
30 98 1
30 99 10
31 33 5
31 34 3
31 39 9
31 40 9
31 42 2
31 44 2
31 46 3
31 50 5
31 55 7
31 56 7
31 58 7
31 59 4
31 60 1
31 61 10
31 62 10
31 64 5
31 65 2
31 67 5
31 71 2
31 72 5
31 73 6
31 75 1
31 77 6
31 79 4
31 80 1
31 85 10
31 88 9
31 89 1
31 92 10
31 93 3
31 94 1
31 96 6
31 98 10
32 34 7
32 35 2
32 36 10
32 37 4
32 38 2
32 39 4
32 40 2
32 41 4
32 42 9
32 47 4
32 51 9
32 52 10
32 55 5
32 60 4
32 61 3
32 62 9
32 63 6
32 65 6
32 66 7
32 69 5
32 70 5
32 71 9
32 72 1
32 74 3
32 75 7
32 78 5
32 80 6
32 81 7
32 82 8
32 85 6
32 87 4
32 91 1
32 92 9
32 93 2
32 94 10
32 95 1
32 97 3
32 98 1
32 99 6
33 35 1
33 36 3
33 38 10
33 39 2
33 41 7
33 43 1
33 44 10
33 51 8
33 52 1
33 53 10
33 55 5
33 59 9
33 61 9
33 64 5
33 65 3
33 66 10
33 69 8
33 73 10
33 74 4
33 76 7
33 77 5
33 80 4
33 83 5
33 84 3
33 85 10
33 87 10
33 89 1
33 93 9
33 97 2
33 99 1
34 36 9
34 39 2
34 42 1
34 43 5
34 44 6
34 45 1
34 46 8
34 47 8
34 48 3
34 49 2
34 51 6
34 52 1
34 54 2
34 55 3
34 56 7
34 59 5
34 60 3
34 61 3
34 63 6
34 65 1
34 66 10
34 68 7
34 69 6
34 72 2
34 75 3
34 79 6
34 80 5
34 82 8
34 94 7
34 96 5
34 97 1
35 37 1
35 40 6
35 41 5
35 42 5
35 44 5
35 45 2
35 49 7
35 50 10
35 51 4
35 52 10
35 54 7
35 55 10
35 56 2
35 57 3
35 62 4
35 65 10
35 66 2
35 68 9
35 70 5
35 71 10
35 72 3
35 77 6
35 78 2
35 79 9
35 80 5
35 81 9
35 83 3
35 84 1
35 85 4
35 86 10
35 87 9
35 88 8
35 89 2
35 90 9
35 91 1
35 93 5
35 94 4
35 95 4
35 96 7
36 38 6
36 41 4
36 44 9
36 45 3
36 51 4
36 52 10
36 53 1
36 57 10
36 61 1
36 63 3
36 64 7
36 65 9
36 66 2
36 67 5
36 70 5
36 72 10
36 74 5
36 75 10
36 76 9
36 78 3
36 80 4
36 82 7
36 83 6
36 84 8
36 85 8
36 88 8
36 90 1
36 91 1
36 92 4
36 96 10
36 98 4
36 99 7
36 100 5
37 39 2
37 42 2
37 44 2
37 46 3
37 47 8
37 51 6
37 54 10
37 59 4
37 61 1
37 62 9
37 64 9
37 70 9
37 72 10
37 77 6
37 78 6
37 79 8
37 81 7
37 82 3
37 86 7
37 92 2
37 93 8
37 94 4
37 95 6
37 96 8
37 98 1
37 99 6
38 40 9
38 44 3
38 45 6
38 46 9
38 47 5
38 49 4
38 52 8
38 54 2
38 56 5
38 58 2
38 60 6
38 61 2
38 62 1
38 64 8
38 66 2
38 70 7
38 71 5
38 72 5
38 73 9
38 75 5
38 77 9
38 78 2
38 80 2
38 82 10
38 83 6
38 84 1
38 85 5
38 87 4
38 88 7
38 89 7
38 90 10
38 91 6
38 95 5
39 42 5
39 44 6
39 45 10
39 46 7
39 47 10
39 51 6
39 55 1
39 56 3
39 57 9
39 59 3
39 60 7
39 62 3
39 65 5
39 67 4
39 69 6
39 70 3
39 71 6
39 72 4
39 73 9
39 74 1
39 76 5
39 77 8
39 78 9
39 80 2
39 84 10
39 85 6
39 87 1
39 90 8
39 92 9
39 96 1
39 98 4
40 44 2
40 47 3
40 48 1
40 50 4
40 54 3
40 55 5
40 57 4
40 58 1
40 62 6
40 63 6
40 65 5
40 67 8
40 68 5
40 69 5
40 70 1
40 72 8
40 74 3
40 76 7
40 77 3
40 78 8
40 79 2
40 85 5
40 86 1
40 87 6
40 89 3
40 90 9
40 92 6
40 93 9
40 94 9
40 98 8
41 42 9
41 45 5
41 47 7
41 49 5
41 50 4
41 51 4
41 53 3
41 54 1
41 55 8
41 57 1
41 58 2
41 60 4
41 63 2
41 66 7
41 73 2
41 74 9
41 75 10
41 77 7
41 78 1
41 83 4
41 86 8
41 92 5
41 93 8
41 95 10
41 99 2
42 44 10
42 50 6
42 53 5
42 55 4
42 58 9
42 59 9
42 63 3
42 64 2
42 68 8
42 70 1
42 72 2
42 73 9
42 74 1
42 76 3
42 79 4
42 80 6
42 83 10
42 84 9
42 85 9
42 88 4
42 89 4
42 91 4
42 92 5
42 93 4
42 96 9
42 98 8
42 99 6
43 47 5
43 49 5
43 51 4
43 52 9
43 53 4
43 58 3
43 63 9
43 64 6
43 65 7
43 66 3
43 67 5
43 68 6
43 70 8
43 72 2
43 73 8
43 74 2
43 78 3
43 79 10
43 80 1
43 85 9
43 86 9
43 87 8
43 91 2
43 92 4
43 93 10
43 94 4
43 96 6
44 46 8
44 47 3
44 49 10
44 50 9
44 60 5
44 63 5
44 64 1
44 70 10
44 72 9
44 79 9
44 80 7
44 83 3
44 84 8
44 85 1
44 86 8
44 87 1
44 88 4
44 90 3
44 91 3
44 92 3
44 93 5
44 94 9
44 95 7
44 97 6
44 98 2
45 47 8
45 48 5
45 49 5
45 50 7
45 51 2
45 54 6
45 56 9
45 58 6
45 60 8
45 61 4
45 64 7
45 65 6
45 66 5
45 69 2
45 75 10
45 76 2
45 80 7
45 81 2
45 82 6
45 84 4
45 85 2
45 87 1
45 88 1
45 89 6
45 92 6
45 93 6
45 94 9
45 95 4
45 96 2
45 97 4
45 98 5
46 47 7
46 48 7
46 50 8
46 51 2
46 52 5
46 53 6
46 55 8
46 57 2
46 59 4
46 61 10
46 62 5
46 63 6
46 67 8
46 69 5
46 70 9
46 71 2
46 75 2
46 78 8
46 79 9
46 81 10
46 82 10
46 83 1
46 86 3
46 87 9
46 88 7
46 90 3
46 91 6
46 92 2
46 97 3
46 98 9
46 99 2
46 100 10
47 48 3
47 50 5
47 51 8
47 52 3
47 57 8
47 59 2
47 61 3
47 66 1
47 69 6
47 73 4
47 74 9
47 75 6
47 76 3
47 80 4
47 81 2
47 82 5
47 83 6
47 85 4
47 87 5
47 88 9
47 89 8
47 90 2
47 92 9
47 93 6
47 94 2
47 96 2
47 98 3
47 99 7
48 49 9
48 53 5
48 54 4
48 55 9
48 56 9
48 57 7
48 59 4
48 60 6
48 63 5
48 65 5
48 67 2
48 73 2
48 75 1
48 76 8
48 77 9
48 81 1
48 83 4
48 85 2
48 88 9
48 89 5
48 92 5
48 94 5
48 96 5
48 97 9
48 99 7
48 100 9
49 50 5
49 52 3
49 56 10
49 58 6
49 59 5
49 60 5
49 65 1
49 71 6
49 72 3
49 73 2
49 74 6
49 75 7
49 76 3
49 77 2
49 80 4
49 83 5
49 84 6
49 89 10
49 90 4
49 91 6
49 95 7
49 96 3
49 98 7
49 99 4
49 100 3
50 58 3
50 59 1
50 60 8
50 62 10
50 63 7
50 66 4
50 67 9
50 69 3
50 71 4
50 72 7
50 73 5
50 74 4
50 76 1
50 80 2
50 82 8
50 83 7
50 85 9
50 89 3
50 91 3
50 92 6
50 93 1
50 94 2
50 95 3
50 96 10
50 98 6
51 54 9
51 55 3
51 56 10
51 57 8
51 63 4
51 65 1
51 68 8
51 70 1
51 72 5
51 74 2
51 75 9
51 79 4
51 80 7
51 82 3
51 83 4
51 86 3
51 90 2
51 92 3
51 93 3
51 94 9
51 99 5
51 100 8
52 53 3
52 54 10
52 58 10
52 64 10
52 65 8
52 66 7
52 67 2
52 68 4
52 69 9
52 70 2
52 71 8
52 72 8
52 73 3
52 74 9
52 75 8
52 78 10
52 79 8
52 85 5
52 86 2
52 88 8
52 89 4
52 90 2
52 91 10
53 54 4
53 56 2
53 57 3
53 58 7
53 59 4
53 62 4
53 65 7
53 66 8
53 70 6
53 72 8
53 74 1
53 75 10
53 77 5
53 80 3
53 81 4
53 82 8
53 84 8
53 85 3
53 87 6
53 89 8
53 92 2
53 95 3
53 97 6
54 58 3
54 59 4
54 60 5
54 64 6
54 68 2
54 69 4
54 72 5
54 73 4
54 75 5
54 76 6
54 78 9
54 80 5
54 86 2
54 91 9
54 93 8
54 94 1
54 96 4
55 58 10
55 61 3
55 63 10
55 65 1
55 69 4
55 72 1
55 73 5
55 74 7
55 75 4
55 76 4
55 78 9
55 80 6
55 81 7
55 83 7
55 85 10
55 86 4
55 88 2
55 89 1
55 90 4
55 94 7
55 95 10
55 96 5
55 99 4
56 57 10
56 58 9
56 60 1
56 62 10
56 64 5
56 66 4
56 67 7
56 68 10
56 69 5
56 71 2
56 72 6
56 73 3
56 74 5
56 77 9
56 78 5
56 79 3
56 83 5
56 84 1
56 86 1
56 87 7
56 90 5
56 92 3
56 95 4
56 96 10
56 99 5
56 100 4
57 61 3
57 62 6
57 63 7
57 67 1
57 68 2
57 70 5
57 71 4
57 72 10
57 73 9
57 78 2
57 79 1
57 80 10
57 81 5
57 84 3
57 86 1
57 87 9
57 88 6
57 90 5
57 91 10
57 93 4
57 95 6
57 98 8
57 99 4
57 100 8
58 60 4
58 62 7
58 64 1
58 69 4
58 74 5
58 76 3
58 78 7
58 79 6
58 80 6
58 81 10
58 82 1
58 84 8
58 85 9
58 87 9
58 88 4
58 89 8
58 91 7
58 92 1
58 94 5
58 96 10
58 97 2
58 98 7
59 60 8
59 63 1
59 65 6
59 66 6
59 68 2
59 74 1
59 82 9
59 84 5
59 87 2
59 88 8
59 90 9
59 92 4
59 100 6
60 69 8
60 70 6
60 71 1
60 72 3
60 73 4
60 76 2
60 77 9
60 78 9
60 80 1
60 82 7
60 84 4
60 86 9
60 87 8
60 88 9
60 90 1
60 91 2
60 92 5
61 62 3
61 63 8
61 64 10
61 65 2
61 66 10
61 67 9
61 68 10
61 72 4
61 73 5
61 76 3
61 77 4
61 78 3
61 80 5
61 82 1
61 83 1
61 85 4
61 86 4
61 87 5
61 88 4
61 90 2
61 91 3
61 93 8
61 96 8
61 97 3
61 98 2
61 99 6
61 100 2
62 71 7
62 72 10
62 74 1
62 76 4
62 78 6
62 80 4
62 83 3
62 87 7
62 93 10
62 97 10
62 99 3
62 100 4
63 65 5
63 66 7
63 67 9
63 71 2
63 73 4
63 80 6
63 81 5
63 82 4
63 83 2
63 85 2
63 86 10
63 87 7
63 89 1
63 91 3
63 92 8
63 94 9
63 97 4
63 99 9
63 100 8
64 65 6
64 73 9
64 74 3
64 76 1
64 81 4
64 83 10
64 86 2
64 88 6
64 94 10
64 95 7
64 96 7
64 98 8
64 99 7
64 100 7
65 67 7
65 68 8
65 70 9
65 71 2
65 73 9
65 74 8
65 76 9
65 79 7
65 80 2
65 82 4
65 85 4
65 86 8
65 90 3
65 91 3
65 92 2
65 95 4
65 96 10
65 97 10
65 99 3
66 70 3
66 71 10
66 73 6
66 75 10
66 77 8
66 79 7
66 80 2
66 81 10
66 84 5
66 85 3
66 87 5
66 89 2
66 90 6
66 93 2
66 96 7
66 97 5
66 99 6
67 68 5
67 70 2
67 72 2
67 74 10
67 81 7
67 83 8
67 85 8
67 90 10
67 95 10
67 100 4
68 69 4
68 71 10
68 73 1
68 78 4
68 80 2
68 81 1
68 82 3
68 83 1
68 84 6
68 86 5
68 87 2
68 88 5
68 89 6
68 97 2
68 98 9
68 100 7
69 70 3
69 71 1
69 72 6
69 73 10
69 74 9
69 77 4
69 80 6
69 81 3
69 82 4
69 83 3
69 84 5
69 85 5
69 86 6
69 89 5
69 93 1
69 94 3
69 95 7
69 96 5
69 98 6
69 99 3
70 72 9
70 75 9
70 76 6
70 77 7
70 80 1
70 82 5
70 84 8
70 85 10
70 86 9
70 87 4
70 88 8
70 91 3
70 93 7
70 94 6
70 95 7
70 97 7
70 98 6
71 73 6
71 78 3
71 79 1
71 80 10
71 81 1
71 86 8
71 88 6
71 89 2
71 90 1
71 91 4
71 94 4
71 97 6
71 99 4
72 73 10
72 74 8
72 78 4
72 80 5
72 82 9
72 84 5
72 91 10
72 93 1
72 95 7
72 98 4
73 74 7
73 75 9
73 76 8
73 78 8
73 79 1
73 83 4
73 84 7
73 86 1
73 92 9
73 93 3
73 95 4
73 96 9
73 98 2
74 77 10
74 79 8
74 81 2
74 83 8
74 84 9
74 85 8
74 88 7
74 90 7
74 92 7
74 93 5
74 94 8
74 96 7
74 97 1
74 100 9
75 76 8
75 77 5
75 78 4
75 79 2
75 80 10
75 84 4
75 85 5
75 89 6
75 92 1
75 94 2
75 95 6
75 96 5
75 98 5
75 100 9
76 80 3
76 81 9
76 88 10
76 91 9
76 97 2
76 99 5
76 100 1
77 78 7
77 79 3
77 81 4
77 83 10
77 85 8
77 87 1
77 91 5
77 94 8
77 95 8
77 96 2
77 97 2
78 79 9
78 82 7
78 85 6
78 86 7
78 87 6
78 88 9
78 89 8
78 90 6
78 91 10
78 93 9
78 94 5
78 95 1
78 96 7
78 97 6
78 98 9
78 99 10
79 80 4
79 83 7
79 84 6
79 85 7
79 87 1
79 89 8
79 91 9
79 92 6
79 97 8
79 99 2
79 100 3
80 81 3
80 82 5
80 83 7
80 84 7
80 85 7
80 86 10
80 87 2
80 90 8
80 94 2
80 95 1
80 97 6
80 98 1
80 99 1
80 100 7
81 83 5
81 84 9
81 85 8
81 89 5
81 91 4
82 84 3
82 87 6
82 88 2
82 90 5
82 91 1
82 92 10
82 97 3
82 99 9
82 100 8
83 84 1
83 85 2
83 88 6
83 92 2
83 93 8
83 96 9
83 98 7
84 86 6
84 89 4
84 90 4
84 92 5
84 93 4
84 94 10
84 100 2
85 86 2
85 87 7
85 88 10
85 92 10
85 97 2
85 98 9
85 99 10
86 87 8
86 88 2
86 90 10
86 93 7
86 94 6
86 95 9
86 99 9
86 100 4
87 88 6
87 89 8
87 90 7
87 91 3
87 92 6
87 94 7
87 97 1
87 98 1
88 90 1
88 93 2
88 94 1
88 97 3
88 100 1
89 91 7
89 93 3
89 95 1
89 97 7
89 100 4
90 91 5
90 94 3
90 95 2
90 97 10
91 94 2
91 96 7
91 97 5
91 98 4
91 99 4
92 93 6
92 94 9
92 95 5
92 96 4
93 94 4
93 96 7
93 98 5
94 96 3
94 99 1
95 96 3
96 98 1
97 100 1
98 100 2
99 100 3
