100 990 184
4
5
8
9
1
2
8
7
10
8
9
5
2
4
3
5
2
2
2
7
8
7
5
9
5
8
7
8
10
8
2
7
6
8
4
8
5
2
2
9
2
8
3
10
7
3
1
8
10
3
7
4
8
6
1
3
10
7
4
10
8
1
9
2
2
6
8
9
10
9
3
3
4
7
6
8
10
7
6
1
3
5
2
4
2
2
10
6
4
2
9
5
9
4
4
4
3
8
9
2
1 14 5
1 15 10
1 27 2
1 28 3
1 34 5
1 39 8
1 48 6
1 49 2
1 53 4
1 59 5
1 61 2
1 64 8
1 66 5
1 67 4
1 70 3
1 71 3
1 77 3
1 85 2
1 90 2
1 91 9
2 5 9
2 6 5
2 22 3
2 26 6
2 31 9
2 32 5
2 33 9
2 39 1
2 40 10
2 42 10
2 43 4
2 44 9
2 46 10
2 55 5
2 56 10
2 65 6
2 66 6
2 68 6
2 70 10
2 72 5
2 74 5
2 75 1
2 81 8
2 86 6
2 93 1
2 97 7
3 10 8
3 11 5
3 13 7
3 14 5
3 17 4
3 29 6
3 35 3
3 41 7
3 54 1
3 57 10
3 60 2
3 61 3
3 69 10
3 73 2
3 78 4
3 79 8
3 85 2
4 5 5
4 6 9
4 16 10
4 17 3
4 20 8
4 26 3
4 33 6
4 38 1
4 46 6
4 48 5
4 50 7
4 56 3
4 60 2
4 66 9
4 75 2
4 78 10
4 84 2
4 88 8
4 91 7
4 92 8
4 93 7
4 96 1
5 7 2
5 16 4
5 21 6
5 32 1
5 33 8
5 34 4
5 46 4
5 47 4
5 48 1
5 50 6
5 51 3
5 56 7
5 61 6
5 62 5
5 67 2
5 75 6
5 80 2
5 96 4
6 7 2
6 10 1
6 12 8
6 13 1
6 14 5
6 16 4
6 26 8
6 34 8
6 38 4
6 41 6
6 44 9
6 46 5
6 47 1
6 54 8
6 58 5
6 80 6
6 86 4
6 91 4
6 94 5
7 8 2
7 15 7
7 21 2
7 23 3
7 29 8
7 35 3
7 36 7
7 39 2
7 41 4
7 52 6
7 54 5
7 57 10
7 58 8
7 60 10
7 61 5
7 73 2
7 77 10
7 87 4
7 89 4
8 11 4
8 15 5
8 17 6
8 19 9
8 21 8
8 22 8
8 39 10
8 40 9
8 44 8
8 47 9
8 48 5
8 50 7
8 58 7
8 59 6
8 67 5
8 70 9
8 71 2
8 72 4
8 74 8
8 76 7
8 77 3
8 85 4
8 87 6
8 90 3
9 25 4
9 34 4
9 48 4
9 62 5
9 64 4
9 73 10
9 74 1
9 75 5
9 80 8
9 82 1
9 84 4
9 88 9
9 89 1
9 97 10
10 15 8
10 17 3
10 22 9
10 24 10
10 27 1
10 30 10
10 40 4
10 44 3
10 51 9
10 55 10
10 60 5
10 62 8
10 65 6
10 72 10
10 78 9
10 80 5
10 86 3
10 94 1
10 98 3
11 12 9
11 21 10
11 54 5
11 70 5
11 72 4
11 78 4
11 85 8
11 88 2
11 91 9
11 95 3
11 96 5
11 97 9
11 99 1
12 18 10
12 19 5
12 22 8
12 29 1
12 32 7
12 33 10
12 35 10
12 38 2
12 55 2
12 58 7
12 63 7
12 64 4
12 65 4
12 67 1
12 75 7
12 98 2
12 99 7
13 15 1
13 16 7
13 25 8
13 41 8
13 42 10
13 46 5
13 49 8
13 51 6
13 62 2
13 63 3
13 82 5
13 83 7
13 89 3
13 98 7
13 100 4
14 17 10
14 23 6
14 29 6
14 35 10
14 51 4
14 53 10
14 54 5
14 56 8
14 57 4
14 62 5
14 78 3
14 82 9
14 84 1
14 88 3
14 89 9
14 92 8
14 93 10
14 98 9
15 16 6
15 18 4
15 24 10
15 27 8
15 40 1
15 42 6
15 48 2
15 54 4
15 55 1
15 57 7
15 60 3
15 64 6
15 67 4
15 76 8
15 86 3
15 87 2
15 92 5
15 99 3
15 100 9
16 20 7
16 22 10
16 27 3
16 33 9
16 38 4
16 44 2
16 92 10
16 95 6
16 98 1
16 99 9
17 19 9
17 21 6
17 25 2
17 39 2
17 51 10
17 59 9
17 60 2
17 69 10
17 73 2
17 84 1
17 92 3
17 95 3
17 96 9
17 99 7
18 21 10
18 22 8
18 28 1
18 29 2
18 30 4
18 40 8
18 46 9
18 49 4
18 62 6
18 63 5
18 73 1
18 74 7
18 80 10
18 86 1
18 87 5
18 88 10
19 20 6
19 26 6
19 50 4
19 51 5
19 53 8
19 56 7
19 63 1
19 70 8
19 71 3
19 74 8
19 75 1
19 79 1
19 86 5
19 93 1
19 95 5
19 96 9
20 23 10
20 29 8
20 36 1
20 39 4
20 42 9
20 58 9
20 70 5
20 79 10
20 82 9
20 85 3
20 87 2
21 31 7
21 40 1
21 44 7
21 64 7
21 66 1
21 72 4
21 75 5
21 86 4
21 98 8
22 31 6
22 47 3
22 48 6
22 50 4
22 60 7
22 61 7
22 65 7
22 70 5
22 72 4
22 79 1
22 87 9
23 24 8
23 25 8
23 28 3
23 34 3
23 35 5
23 36 3
23 43 5
23 46 2
23 47 7
23 51 3
23 60 7
23 61 1
23 64 5
23 67 3
23 70 7
23 75 6
23 80 10
23 82 9
23 83 1
23 88 1
23 94 9
23 97 5
24 29 5
24 33 9
24 34 3
24 40 5
24 41 7
24 60 6
24 68 4
24 69 1
24 70 10
24 73 7
24 78 8
24 83 9
24 90 3
24 91 1
24 92 5
24 97 5
25 27 4
25 30 6
25 36 8
25 53 7
25 57 1
25 60 5
25 63 2
25 70 2
25 72 9
25 87 10
25 89 8
25 98 1
25 99 4
26 31 9
26 34 10
26 35 8
26 38 2
26 47 6
26 49 3
26 65 10
26 67 9
26 70 2
26 74 7
26 77 6
26 78 8
26 84 1
26 85 9
26 86 6
26 88 2
26 89 3
26 98 3
27 28 8
27 45 9
27 47 3
27 48 4
27 57 8
27 58 2
27 60 4
27 61 2
27 62 3
27 67 2
27 80 9
27 84 6
27 87 10
27 88 7
28 39 1
28 46 10
28 47 7
28 49 7
28 54 7
28 65 7
28 71 8
28 81 8
28 87 9
28 91 8
28 94 3
28 96 9
29 31 4
29 34 8
29 37 1
29 44 2
29 51 2
29 56 8
29 57 3
29 61 4
29 67 7
29 75 9
29 79 1
29 87 6
29 94 6
29 95 4
29 97 8
29 98 9
30 32 2
30 40 1
30 41 9
30 44 4
30 71 1
30 76 1
30 88 7
30 97 1
31 33 5
31 35 9
31 37 1
31 40 4
31 43 5
31 47 1
31 50 5
31 55 4
31 58 3
31 60 4
31 73 10
31 89 4
31 90 7
31 94 5
31 97 10
31 100 7
32 34 4
32 37 2
32 42 4
32 43 5
32 47 2
32 51 2
32 52 4
32 53 6
32 55 3
32 58 4
32 59 1
32 60 7
32 63 6
32 68 2
32 77 5
32 78 4
32 80 10
32 84 7
32 86 3
32 88 9
32 95 9
33 37 7
33 39 2
33 45 6
33 46 8
33 54 1
33 55 6
33 56 1
33 61 7
33 66 8
33 78 4
33 88 1
33 96 6
33 100 4
34 53 5
34 57 1
34 68 6
34 72 8
34 76 8
34 79 1
34 81 6
34 89 10
34 92 3
34 98 3
35 42 4
35 48 1
35 49 5
35 57 6
35 59 6
35 64 5
35 67 7
35 75 2
35 88 3
35 93 5
35 98 9
36 38 4
36 52 5
36 53 8
36 54 2
36 61 1
36 74 4
36 75 8
36 76 2
36 84 8
36 85 3
36 87 3
36 92 2
36 99 10
37 47 3
37 49 3
37 50 5
37 57 7
37 61 7
37 62 3
37 66 5
37 67 5
37 69 2
37 70 1
37 74 5
37 75 1
37 86 3
37 93 3
37 97 9
37 99 7
38 41 3
38 42 8
38 43 5
38 46 10
38 56 7
38 64 4
38 68 7
38 70 9
38 80 3
38 92 3
38 93 4
38 99 4
39 41 9
39 45 10
39 47 4
39 49 10
39 53 8
39 55 9
39 56 8
39 82 3
39 84 9
39 89 2
39 91 3
39 100 9
40 51 7
40 56 9
40 57 7
40 67 3
40 68 8
40 71 10
40 72 8
40 75 3
40 76 5
40 77 8
40 85 8
40 87 10
41 43 1
41 45 8
41 47 8
41 50 2
41 55 8
41 57 10
41 58 5
41 63 2
41 70 7
41 71 5
41 74 5
41 75 8
41 76 3
41 77 9
41 83 3
41 93 8
41 98 8
41 99 4
42 45 1
42 49 3
42 56 2
42 59 1
42 71 2
42 74 10
42 75 2
42 77 3
42 82 9
42 90 5
42 97 5
43 50 6
43 52 1
43 54 6
43 55 10
43 61 3
43 64 8
43 69 10
43 74 9
43 75 4
43 78 2
43 97 7
44 45 8
44 61 2
44 66 5
44 68 8
44 73 3
44 74 4
44 80 8
44 89 10
45 46 10
45 47 10
45 57 4
45 67 2
45 73 9
45 75 5
45 77 6
45 79 10
45 81 10
45 82 2
45 83 4
46 48 1
46 54 5
46 56 3
46 75 6
46 84 6
46 86 8
46 87 3
46 92 3
47 50 6
47 51 6
47 55 4
47 57 4
47 70 7
47 72 3
47 74 4
47 79 5
47 85 7
47 86 4
48 49 10
48 55 1
48 57 7
48 58 9
48 62 4
48 70 8
48 71 9
48 74 7
48 86 9
48 92 1
48 96 2
48 100 3
49 50 7
49 54 8
49 77 10
49 83 2
49 84 2
49 85 3
50 51 1
50 52 8
50 55 2
50 56 7
50 62 7
50 66 4
50 69 9
50 70 8
50 85 10
50 98 2
50 100 6
51 56 5
51 60 6
51 61 4
51 62 7
51 64 1
51 70 7
51 75 3
51 77 4
51 78 5
51 86 3
51 87 8
51 88 6
51 91 7
52 62 1
52 64 3
52 68 10
52 78 2
52 79 3
52 87 2
52 89 8
52 100 6
53 54 9
53 75 9
53 76 4
53 77 9
53 79 5
53 83 2
53 85 5
53 86 4
53 88 2
53 94 4
53 98 5
54 56 7
54 61 9
54 74 10
54 83 1
54 89 2
54 91 8
54 93 9
54 95 5
54 97 5
55 57 1
55 74 4
55 76 6
55 78 7
55 81 8
55 84 5
55 85 9
55 93 5
55 95 10
55 97 5
56 69 3
56 70 1
56 72 3
56 73 5
56 81 8
56 87 5
56 98 7
56 99 8
57 61 5
57 62 6
57 65 5
57 67 1
57 68 6
57 69 4
57 70 3
57 82 3
57 83 8
57 85 4
57 86 6
57 89 10
57 97 1
57 98 10
57 100 6
58 63 3
58 64 5
58 67 2
58 74 6
58 75 5
58 77 5
58 78 7
58 85 2
58 90 10
58 91 6
58 95 1
58 96 9
58 99 8
58 100 10
59 60 2
59 61 10
59 63 4
59 68 8
59 88 7
59 92 9
59 100 9
60 64 9
60 69 7
60 70 1
60 72 5
60 73 6
60 74 10
60 80 8
60 81 6
60 91 4
60 96 1
61 71 5
61 72 9
61 84 4
61 89 8
61 93 5
62 70 3
62 73 5
62 76 10
62 77 5
62 79 9
62 84 5
62 86 10
62 90 5
62 93 5
62 97 5
63 75 10
63 82 2
63 83 5
63 85 7
63 90 3
63 93 5
63 94 1
64 65 8
64 66 6
64 70 7
64 83 4
64 85 5
64 93 9
64 98 7
65 79 3
65 81 7
65 87 9
65 90 1
65 94 2
65 95 10
66 69 3
66 83 9
66 84 2
66 85 2
66 87 4
66 93 6
66 98 1
67 68 6
67 69 8
67 70 9
67 71 2
67 72 8
67 78 6
67 81 10
67 82 4
67 86 10
67 87 7
67 99 3
68 74 2
68 79 6
68 81 10
68 84 1
68 88 10
68 89 3
68 90 10
68 98 9
69 75 9
69 77 9
69 86 7
69 91 9
69 93 3
69 98 7
70 71 7
70 82 1
70 87 7
70 93 2
71 72 3
71 74 5
71 96 1
72 75 2
72 76 9
72 84 4
72 92 9
72 96 9
73 77 1
73 81 9
73 85 10
73 89 8
73 92 3
73 93 9
73 94 8
74 79 6
74 89 7
74 91 9
74 92 3
74 93 8
74 94 2
74 95 1
75 87 2
75 88 6
76 78 8
76 80 7
76 94 3
76 97 4
76 100 6
77 82 10
77 84 4
77 87 5
77 93 4
77 99 1
77 100 2
78 90 10
79 86 1
79 88 1
79 97 8
79 99 2
79 100 5
80 94 8
80 95 2
80 97 9
81 82 7
81 83 2
81 95 1
81 96 1
83 91 5
83 92 6
83 94 7
83 98 4
83 100 1
84 87 1
84 95 4
84 96 1
84 97 7
84 100 1
85 100 6
86 92 1
86 97 1
87 98 6
88 91 7
88 96 4
88 97 10
89 91 10
89 95 2
89 99 3
90 93 7
90 99 10
90 100 2
91 92 10
91 98 10
91 100 1
92 94 10
92 95 5
92 98 6
92 99 1
93 95 10
93 96 8
94 95 6
94 96 3
94 100 9
95 99 4
96 99 1
97 100 5
