100 1485 184
7
5
1
6
3
10
6
8
3
6
6
4
9
7
3
9
7
4
5
5
3
2
1
8
3
1
5
1
8
3
5
2
3
3
4
7
2
7
3
10
7
6
5
3
7
10
8
5
7
4
7
9
7
1
7
2
3
7
10
2
3
1
4
6
7
4
9
4
10
3
9
6
3
1
3
4
5
5
10
10
3
6
5
7
8
10
3
9
8
10
6
7
4
1
9
5
2
1
9
5
1 2 3
1 5 6
1 9 2
1 13 6
1 14 3
1 16 10
1 18 5
1 19 9
1 26 7
1 33 10
1 41 10
1 43 5
1 46 6
1 51 6
1 56 6
1 57 4
1 60 9
1 61 8
1 64 6
1 65 10
1 67 10
1 73 5
1 74 7
1 76 10
1 77 4
1 82 5
1 83 6
1 86 1
1 100 10
2 3 9
2 7 7
2 10 10
2 13 5
2 15 9
2 16 1
2 18 7
2 25 3
2 29 8
2 33 3
2 34 7
2 37 6
2 38 4
2 39 2
2 40 2
2 41 10
2 44 5
2 48 1
2 50 6
2 54 9
2 59 5
2 60 9
2 61 5
2 63 5
2 70 3
2 71 10
2 73 7
2 79 9
2 81 1
2 82 8
2 85 2
2 90 7
2 92 2
3 6 7
3 9 6
3 10 5
3 11 7
3 12 8
3 13 9
3 17 7
3 18 9
3 22 7
3 24 8
3 30 4
3 32 7
3 33 9
3 34 7
3 45 1
3 48 8
3 49 2
3 53 10
3 56 4
3 59 2
3 61 9
3 62 1
3 63 3
3 67 5
3 71 9
3 72 1
3 74 8
3 81 10
3 83 7
3 88 10
3 90 1
3 94 6
4 14 5
4 17 8
4 24 10
4 28 4
4 30 5
4 31 3
4 32 8
4 43 7
4 58 7
4 59 9
4 64 10
4 68 6
4 70 9
4 73 1
4 74 2
4 77 9
4 78 9
4 82 5
4 85 3
4 90 2
4 96 6
4 100 9
5 6 7
5 7 7
5 11 6
5 13 1
5 15 10
5 18 7
5 19 2
5 21 2
5 26 7
5 27 5
5 31 6
5 34 5
5 36 6
5 37 10
5 38 7
5 42 5
5 44 3
5 47 10
5 49 5
5 51 6
5 54 1
5 57 10
5 63 9
5 65 4
5 66 8
5 67 4
5 70 5
5 76 1
5 84 7
5 86 10
5 87 7
5 90 5
5 91 10
5 92 4
5 97 9
5 98 7
6 11 3
6 16 9
6 17 4
6 18 8
6 23 1
6 26 5
6 28 6
6 36 8
6 37 2
6 38 2
6 40 10
6 41 6
6 42 8
6 43 5
6 44 1
6 45 4
6 48 4
6 57 3
6 60 3
6 67 2
6 80 1
6 84 1
6 86 10
6 90 2
6 92 4
6 97 9
6 98 8
7 9 7
7 14 3
7 15 7
7 16 1
7 17 8
7 18 5
7 33 2
7 34 6
7 35 6
7 42 2
7 43 6
7 52 10
7 55 6
7 67 1
7 72 5
7 77 10
7 78 10
7 88 7
7 90 1
7 91 7
7 93 9
7 94 3
7 98 5
8 9 7
8 12 9
8 16 4
8 18 4
8 23 7
8 24 2
8 28 6
8 29 10
8 33 3
8 35 8
8 39 9
8 42 7
8 46 9
8 50 1
8 52 9
8 55 9
8 57 5
8 59 7
8 63 5
8 65 4
8 72 4
8 74 6
8 77 2
8 79 1
8 80 4
8 81 7
8 90 5
8 97 6
8 99 5
9 14 5
9 18 6
9 20 9
9 23 3
9 25 5
9 26 6
9 30 6
9 33 3
9 37 8
9 40 5
9 47 6
9 51 4
9 62 10
9 69 1
9 76 2
9 77 3
9 81 5
9 86 6
9 87 5
9 90 9
9 97 8
9 99 7
10 11 10
10 18 5
10 21 1
10 22 10
10 26 1
10 27 3
10 30 6
10 31 3
10 42 10
10 53 10
10 54 2
10 57 7
10 59 9
10 60 1
10 65 10
10 68 8
10 69 7
10 73 2
10 74 10
10 79 6
10 81 7
10 82 2
10 84 1
10 88 3
10 92 4
11 12 9
11 13 4
11 14 9
11 16 5
11 17 8
11 26 4
11 27 1
11 28 7
11 29 7
11 32 9
11 34 4
11 36 2
11 38 7
11 43 1
11 57 5
11 59 6
11 61 1
11 65 3
11 67 9
11 68 5
11 74 1
11 81 9
11 86 10
11 88 1
11 96 8
11 98 4
12 18 9
12 19 3
12 33 2
12 35 1
12 37 1
12 39 10
12 42 7
12 45 7
12 58 10
12 59 10
12 62 5
12 64 8
12 65 6
12 67 7
12 72 6
12 74 5
12 76 1
12 80 5
12 84 6
12 86 3
13 15 1
13 17 7
13 21 1
13 22 5
13 23 4
13 25 6
13 26 5
13 27 7
13 32 4
13 46 2
13 47 4
13 48 4
13 49 4
13 51 6
13 54 5
13 57 7
13 58 9
13 62 4
13 63 4
13 64 3
13 68 3
13 71 9
13 74 1
13 76 1
13 77 4
13 80 5
13 82 4
13 85 9
13 94 2
13 96 6
14 17 4
14 21 7
14 23 7
14 25 4
14 28 7
14 31 7
14 36 1
14 37 2
14 40 6
14 42 5
14 43 9
14 44 7
14 46 3
14 48 10
14 50 1
14 52 1
14 55 6
14 63 6
14 64 10
14 68 4
14 71 4
14 72 5
14 74 8
14 81 8
14 83 5
14 87 3
14 89 2
14 98 5
14 99 5
14 100 2
15 16 7
15 17 5
15 22 2
15 23 9
15 25 3
15 27 10
15 35 7
15 36 7
15 39 2
15 41 6
15 48 9
15 51 3
15 52 5
15 54 3
15 57 5
15 60 10
15 62 8
15 63 6
15 65 9
15 66 8
15 67 8
15 70 9
15 71 2
15 72 1
15 80 5
15 82 8
15 83 2
15 88 10
15 91 4
15 98 7
16 19 3
16 24 4
16 26 10
16 31 3
16 32 10
16 36 10
16 37 10
16 40 10
16 41 8
16 46 9
16 49 1
16 50 4
16 52 8
16 54 7
16 56 8
16 58 10
16 62 7
16 63 8
16 64 7
16 76 7
16 78 1
16 80 3
16 85 10
16 86 6
16 87 10
16 90 8
16 92 3
17 25 5
17 31 10
17 34 9
17 35 1
17 38 10
17 41 1
17 42 5
17 44 1
17 45 7
17 47 5
17 48 4
17 50 5
17 52 7
17 53 10
17 54 7
17 59 8
17 66 5
17 73 7
17 77 10
17 80 6
17 81 2
17 83 4
17 85 3
17 89 2
17 90 9
17 91 7
17 92 1
17 93 10
17 99 6
18 25 9
18 26 4
18 28 8
18 35 9
18 38 9
18 41 7
18 47 4
18 48 5
18 51 8
18 52 5
18 54 5
18 55 2
18 57 5
18 58 3
18 60 8
18 70 7
18 73 1
18 76 8
18 79 10
18 80 9
18 81 5
18 86 5
18 87 7
18 91 5
18 92 9
18 93 10
18 96 5
18 97 5
18 99 7
19 20 5
19 22 9
19 23 9
19 24 9
19 29 7
19 33 3
19 34 6
19 37 1
19 48 2
19 54 7
19 63 3
19 71 4
19 79 4
19 80 3
19 82 1
19 89 7
19 99 9
20 21 6
20 22 8
20 24 10
20 26 6
20 28 6
20 30 3
20 37 7
20 40 9
20 46 9
20 47 9
20 50 2
20 51 8
20 53 8
20 54 5
20 56 7
20 57 2
20 66 7
20 69 4
20 70 5
20 71 2
20 77 4
20 84 8
20 90 6
20 92 4
20 93 4
20 95 6
20 97 3
20 100 10
21 22 3
21 38 5
21 39 1
21 40 4
21 46 10
21 47 4
21 52 2
21 53 9
21 54 9
21 55 5
21 60 9
21 63 7
21 67 5
21 68 8
21 70 1
21 74 10
21 75 3
21 78 1
21 81 4
21 83 2
21 90 8
21 96 6
21 99 6
22 24 8
22 35 5
22 36 7
22 46 10
22 53 5
22 61 6
22 62 8
22 68 7
22 71 5
22 73 2
22 75 7
22 82 8
22 84 6
22 85 4
22 91 4
22 94 9
22 100 4
23 24 10
23 25 10
23 26 9
23 28 9
23 34 8
23 49 6
23 50 5
23 55 1
23 59 8
23 62 1
23 68 6
23 73 7
23 74 6
23 78 8
23 79 2
23 83 6
23 85 2
23 86 3
23 94 6
23 97 7
24 25 9
24 27 9
24 31 5
24 33 2
24 39 9
24 41 10
24 53 7
24 57 8
24 60 7
24 65 3
24 66 4
24 69 2
24 73 8
24 74 1
24 75 4
24 76 4
24 78 3
24 80 5
24 84 5
24 90 3
24 94 8
24 95 10
24 96 1
24 100 3
25 27 1
25 30 6
25 34 1
25 35 9
25 37 7
25 38 8
25 41 2
25 42 8
25 43 2
25 44 10
25 47 7
25 48 3
25 57 6
25 60 8
25 62 9
25 63 1
25 72 8
25 76 4
25 78 7
25 80 4
25 81 1
25 84 6
25 88 4
25 93 8
25 95 4
25 99 10
26 32 8
26 35 9
26 41 4
26 49 7
26 51 3
26 56 7
26 57 10
26 69 7
26 72 9
26 73 5
26 74 3
26 76 4
26 79 10
26 84 3
26 85 6
26 86 6
26 87 5
26 91 1
26 97 3
26 99 6
27 35 7
27 42 10
27 44 7
27 47 7
27 49 8
27 50 3
27 55 6
27 59 5
27 71 9
27 74 3
27 77 7
27 89 6
27 93 1
27 96 4
27 97 3
27 99 4
28 29 4
28 35 4
28 36 9
28 37 10
28 38 3
28 45 3
28 46 1
28 51 5
28 54 4
28 56 4
28 63 9
28 74 10
28 76 6
28 86 8
28 88 6
28 89 3
28 97 5
28 100 8
29 32 8
29 34 3
29 43 6
29 44 7
29 51 3
29 54 2
29 55 8
29 59 4
29 60 9
29 61 3
29 64 4
29 67 9
29 69 9
29 71 4
29 74 2
29 79 4
29 82 3
29 84 6
29 88 2
29 90 3
29 91 10
29 93 4
29 94 2
29 100 9
30 35 7
30 41 4
30 42 6
30 43 10
30 55 9
30 57 4
30 63 6
30 65 7
30 69 4
30 71 7
30 74 9
30 80 3
30 82 6
30 94 2
30 98 8
31 34 6
31 36 6
31 39 4
31 47 2
31 48 5
31 57 2
31 60 1
31 62 3
31 65 8
31 66 1
31 68 7
31 71 1
31 72 2
31 75 6
31 83 8
31 84 2
31 85 7
31 87 7
31 88 3
31 96 3
31 97 6
31 100 6
32 34 10
32 35 6
32 36 2
32 43 5
32 44 5
32 45 8
32 50 3
32 53 1
32 56 3
32 57 1
32 62 3
32 65 8
32 67 2
32 71 5
32 73 6
32 75 2
32 87 3
32 89 8
32 93 8
32 99 3
33 36 3
33 37 8
33 40 10
33 42 3
33 46 1
33 47 5
33 52 7
33 54 10
33 57 3
33 58 3
33 63 10
33 66 4
33 72 3
33 78 10
33 80 10
33 81 5
33 88 9
33 90 8
33 91 1
33 92 1
33 93 4
33 96 1
33 97 5
33 98 2
34 37 9
34 38 9
34 42 7
34 43 1
34 48 4
34 50 10
34 52 8
34 58 2
34 61 3
34 62 5
34 65 2
34 71 4
34 73 4
34 74 4
34 75 10
34 82 2
34 87 2
34 92 10
34 93 3
34 95 4
34 97 3
35 36 9
35 39 5
35 40 2
35 43 4
35 45 8
35 52 1
35 53 7
35 55 1
35 58 10
35 65 10
35 66 1
35 69 4
35 70 3
35 72 1
35 76 10
35 81 2
35 82 4
35 84 1
35 88 2
35 91 4
35 92 5
35 93 9
35 94 9
35 97 2
35 99 10
36 39 4
36 40 1
36 50 8
36 51 8
36 54 6
36 57 3
36 61 8
36 67 2
36 69 4
36 71 4
36 76 5
36 77 1
36 79 9
36 80 9
36 84 2
36 86 3
36 87 2
36 88 5
36 93 1
36 95 9
36 99 2
37 38 9
37 42 10
37 46 9
37 64 1
37 67 7
37 69 9
37 70 7
37 78 1
37 81 9
37 89 3
38 42 1
38 45 5
38 46 9
38 51 4
38 52 10
38 58 4
38 61 8
38 63 4
38 64 3
38 66 7
38 76 7
38 79 10
38 81 3
38 82 10
38 83 2
38 86 5
38 92 5
38 94 9
39 40 1
39 46 6
39 51 7
39 52 2
39 53 8
39 58 9
39 59 8
39 62 4
39 63 10
39 64 4
39 66 1
39 67 1
39 69 1
39 70 1
39 72 10
39 74 1
39 75 8
39 76 8
39 79 7
39 81 3
39 89 1
39 92 7
39 94 3
40 44 10
40 45 9
40 48 7
40 49 1
40 50 2
40 52 1
40 54 9
40 55 5
40 61 8
40 64 8
40 66 1
40 71 4
40 84 1
40 87 7
40 91 9
40 94 9
40 96 7
40 100 9
41 45 7
41 46 4
41 53 1
41 56 3
41 60 9
41 62 3
41 72 7
41 74 1
41 76 6
41 79 1
41 82 10
41 85 8
41 88 9
41 90 1
41 91 1
41 95 5
41 98 9
42 46 10
42 49 3
42 50 5
42 52 7
42 60 8
42 61 10
42 62 6
42 63 4
42 67 4
42 68 5
42 69 7
42 70 1
42 74 10
42 82 5
42 83 4
42 84 6
42 88 5
42 96 3
42 99 5
43 45 3
43 50 6
43 64 4
43 67 6
43 68 4
43 72 2
43 84 4
43 89 9
43 91 2
43 94 6
43 95 7
44 47 7
44 52 10
44 53 4
44 58 2
44 60 2
44 63 4
44 68 2
44 69 2
44 75 6
44 76 9
44 79 6
44 81 4
44 87 10
44 90 5
44 96 8
44 97 3
44 99 5
44 100 2
45 50 10
45 54 6
45 56 6
45 61 9
45 63 5
45 66 6
45 70 10
45 71 8
45 79 7
45 81 1
45 83 5
45 89 5
45 90 6
45 92 6
45 95 7
45 97 8
45 98 5
45 99 6
45 100 2
46 49 3
46 51 8
46 55 9
46 58 5
46 60 2
46 61 3
46 65 3
46 66 1
46 68 10
46 70 8
46 73 5
46 75 3
46 83 8
46 84 3
46 85 7
46 90 1
46 94 7
46 95 2
46 98 1
46 100 5
47 48 3
47 49 7
47 56 4
47 64 9
47 65 6
47 66 10
47 69 10
47 77 5
47 80 9
47 81 4
47 88 1
47 91 6
47 92 10
48 55 8
48 56 10
48 66 3
48 74 2
48 76 4
48 77 6
48 78 1
48 81 2
48 82 10
48 87 3
48 92 1
48 99 8
49 51 2
49 58 7
49 62 7
49 64 4
49 72 5
49 75 1
49 81 4
49 82 2
49 84 1
49 85 1
49 87 6
49 88 5
49 90 1
49 92 7
49 93 10
49 100 10
50 57 6
50 59 4
50 61 2
50 64 3
50 75 3
50 79 3
50 82 8
50 83 4
50 87 7
50 92 1
50 93 9
50 98 5
50 99 2
51 55 1
51 57 3
51 62 1
51 63 3
51 70 2
51 82 8
51 86 3
51 90 8
51 94 2
52 56 5
52 63 7
52 64 1
52 68 6
52 76 8
52 82 2
52 87 6
52 88 9
52 91 7
52 93 2
53 54 5
53 56 9
53 57 7
53 61 10
53 63 1
53 64 6
53 65 8
53 67 9
53 70 5
53 71 2
53 72 7
53 83 1
53 90 6
53 93 5
53 95 2
53 99 1
54 58 3
54 60 4
54 62 9
54 65 1
54 69 3
54 70 6
54 72 5
54 73 3
54 74 5
54 75 5
54 83 1
54 92 10
54 93 4
54 94 3
54 96 5
54 98 1
55 59 9
55 62 2
55 64 6
55 67 1
55 70 7
55 71 7
55 78 3
55 86 3
55 87 3
55 91 4
55 100 5
56 58 5
56 59 7
56 64 1
56 65 1
56 67 6
56 74 4
56 75 4
56 76 6
56 81 5
56 82 8
56 86 2
56 87 8
56 88 7
56 89 2
56 92 2
56 93 4
56 94 10
56 98 6
57 61 1
57 64 8
57 68 1
57 70 5
57 72 9
57 73 2
57 75 1
57 77 6
57 79 8
57 83 6
57 84 9
57 86 8
57 88 6
57 89 2
57 90 8
57 99 10
57 100 4
58 60 1
58 68 1
58 71 6
58 73 8
58 77 3
58 82 10
58 83 10
58 85 3
58 88 6
58 90 2
58 93 6
58 94 3
58 95 8
59 62 5
59 63 6
59 65 2
59 66 9
59 67 5
59 68 4
59 76 8
59 77 2
59 81 8
59 88 8
59 90 7
59 94 4
59 95 6
59 98 5
60 61 1
60 62 9
60 66 7
60 69 5
60 73 9
60 74 3
60 85 4
60 90 6
61 62 4
61 64 8
61 68 6
61 70 8
61 71 7
61 72 7
61 76 7
61 77 5
61 79 3
61 80 8
61 83 9
61 87 9
61 95 4
61 96 9
61 100 5
62 63 5
62 64 6
62 66 2
62 70 10
62 76 10
62 84 1
62 86 2
62 88 3
62 90 10
62 93 8
62 95 1
62 97 1
63 66 5
63 67 8
63 68 10
63 71 9
63 72 4
63 73 1
63 75 7
63 76 5
63 82 3
63 83 4
63 87 5
63 95 7
63 96 6
63 98 5
64 70 3
64 71 1
64 72 3
64 73 4
64 76 3
64 77 3
64 90 6
64 91 1
64 93 9
64 94 6
64 97 2
64 98 4
64 99 10
65 71 5
65 73 4
65 74 10
65 75 5
65 76 2
65 83 6
65 86 5
65 89 4
65 94 8
66 71 4
66 78 5
66 80 5
66 81 2
66 84 6
66 86 2
66 87 7
66 91 7
66 92 2
66 94 7
66 95 8
67 69 9
67 71 2
67 74 5
67 83 4
67 91 2
67 92 10
67 95 4
67 98 4
67 99 1
68 70 7
68 72 2
68 76 3
68 79 1
68 80 9
68 87 8
68 90 4
68 94 9
68 96 8
68 97 10
69 70 2
69 79 2
69 86 9
69 95 4
69 99 8
69 100 9
70 84 8
70 85 1
70 86 4
70 87 8
70 88 8
70 89 6
70 92 5
70 98 5
71 74 1
71 75 4
71 77 1
71 80 8
71 83 3
71 88 6
71 89 8
71 92 2
71 94 2
71 96 1
71 97 6
72 73 7
72 76 10
72 78 9
72 79 1
72 83 9
72 84 10
72 99 9
72 100 1
73 77 10
73 79 10
73 83 5
73 88 6
73 90 7
73 94 8
73 99 3
74 75 2
74 76 10
74 78 3
74 79 7
74 82 10
74 83 2
74 89 8
74 90 4
74 93 8
74 94 6
74 96 6
74 99 2
74 100 5
75 76 3
75 79 1
75 84 2
75 86 3
75 91 1
75 94 7
76 78 7
76 86 8
76 87 2
76 93 7
76 94 8
76 96 9
77 78 1
77 87 3
77 88 7
77 89 4
77 91 3
77 100 9
78 80 1
78 82 6
78 83 10
78 85 6
78 88 6
78 91 1
78 92 8
78 98 2
78 99 9
78 100 10
79 82 5
79 89 8
79 91 7
79 92 8
79 94 9
79 97 6
79 99 3
80 81 4
80 82 1
80 83 6
80 84 5
80 86 2
80 89 10
80 95 6
81 83 4
81 84 8
81 86 8
81 91 6
81 97 4
82 83 4
82 87 7
82 89 5
82 94 10
82 95 4
82 96 3
83 88 9
83 89 7
83 90 7
83 91 5
83 92 4
83 93 2
83 95 2
83 98 8
84 85 6
84 88 3
84 92 8
84 93 4
84 95 8
84 96 10
84 97 4
84 100 6
85 86 9
85 91 2
86 90 9
86 95 5
87 91 10
87 94 8
87 95 2
87 96 3
87 98 7
88 89 9
88 90 5
88 92 10
88 93 6
88 94 4
88 97 5
88 100 8
89 96 6
90 98 3
91 93 6
91 100 6
92 94 10
92 100 5
93 96 2
94 95 2
94 96 6
94 98 9
94 100 3
95 97 9
95 100 3
96 100 3
98 99 4
