200 3980 550
4
6
4
5
3
3
10
10
5
9
8
10
4
1
10
7
9
8
2
7
2
6
7
5
8
1
8
3
6
9
2
2
5
9
5
5
9
1
8
5
3
8
5
5
1
4
8
2
7
6
6
9
9
9
4
10
3
8
6
8
4
7
6
1
2
6
10
2
1
9
3
6
7
5
6
7
2
9
6
1
9
9
2
7
3
2
8
3
6
9
10
5
9
3
8
5
6
9
8
2
2
3
7
10
3
1
2
3
6
5
3
1
4
9
4
9
9
8
1
7
3
7
6
4
4
5
2
1
8
3
1
5
6
6
1
2
5
10
1
4
6
4
7
6
1
9
5
6
9
7
9
6
8
1
10
6
6
6
7
8
10
7
10
9
3
3
6
8
9
10
3
2
8
9
10
7
10
2
7
6
6
1
1
1
1
2
2
9
4
7
6
6
2
3
8
8
8
5
4
2
1 2 6
1 3 3
1 9 2
1 11 4
1 12 5
1 17 9
1 19 10
1 22 3
1 26 9
1 31 10
1 33 2
1 43 7
1 55 10
1 56 7
1 57 8
1 61 6
1 71 2
1 72 4
1 84 9
1 87 9
1 91 9
1 94 8
1 95 5
1 103 10
1 105 9
1 110 7
1 111 7
1 112 5
1 116 1
1 128 2
1 130 4
1 136 8
1 142 8
1 145 1
1 150 6
1 153 5
1 156 4
1 164 5
1 165 3
1 168 9
1 187 5
1 189 3
1 190 7
1 200 1
2 7 10
2 8 10
2 12 8
2 15 5
2 22 4
2 36 5
2 38 2
2 45 10
2 47 1
2 48 5
2 52 1
2 56 9
2 58 8
2 62 10
2 68 8
2 69 8
2 73 10
2 82 3
2 96 7
2 102 5
2 108 1
2 116 2
2 117 9
2 118 9
2 126 3
2 137 5
2 149 3
2 150 10
2 153 4
2 156 5
2 163 4
2 164 4
2 168 7
2 170 2
2 175 6
2 177 6
2 186 3
2 187 4
2 188 9
2 192 2
2 196 10
2 197 9
2 198 8
3 12 5
3 14 5
3 16 2
3 21 6
3 22 1
3 31 9
3 38 4
3 45 4
3 58 7
3 61 1
3 66 10
3 69 9
3 72 7
3 77 5
3 84 8
3 90 8
3 92 3
3 103 2
3 106 10
3 130 3
3 139 3
3 143 7
3 151 8
3 158 1
3 162 9
3 170 9
3 171 3
3 177 4
3 178 8
3 182 8
3 183 8
3 188 7
3 189 10
3 193 1
3 194 1
4 11 10
4 13 7
4 19 8
4 20 6
4 23 1
4 26 7
4 29 7
4 35 7
4 36 4
4 37 3
4 44 3
4 46 10
4 49 1
4 50 3
4 51 1
4 54 8
4 55 9
4 58 3
4 59 10
4 60 3
4 70 5
4 71 3
4 76 6
4 78 10
4 82 4
4 89 2
4 91 5
4 93 10
4 96 5
4 101 6
4 107 4
4 111 1
4 112 10
4 115 2
4 117 4
4 130 5
4 131 3
4 144 1
4 154 6
4 161 9
4 163 2
4 169 8
4 174 4
4 175 1
4 179 3
4 185 8
4 197 8
4 198 2
4 199 3
5 9 2
5 14 2
5 16 2
5 18 7
5 22 2
5 34 2
5 35 2
5 36 7
5 42 10
5 45 4
5 46 7
5 48 3
5 53 2
5 56 1
5 57 3
5 63 4
5 71 7
5 72 9
5 73 1
5 75 5
5 79 10
5 82 5
5 89 2
5 93 7
5 97 2
5 98 2
5 101 6
5 103 4
5 113 5
5 116 6
5 120 7
5 123 7
5 130 8
5 135 10
5 140 3
5 151 10
5 161 5
5 173 3
5 174 1
5 178 5
5 180 2
5 200 7
6 14 4
6 21 6
6 29 1
6 34 1
6 37 5
6 43 5
6 46 2
6 53 1
6 67 2
6 76 3
6 81 2
6 85 1
6 86 4
6 90 7
6 92 4
6 94 6
6 97 6
6 108 8
6 118 8
6 119 7
6 122 7
6 128 6
6 130 9
6 151 3
6 152 7
6 157 9
6 164 10
6 165 3
6 168 3
6 172 5
6 175 6
6 178 10
6 188 3
6 189 8
7 12 9
7 13 10
7 18 7
7 20 5
7 26 1
7 30 10
7 32 7
7 34 2
7 37 8
7 50 4
7 52 4
7 56 6
7 63 5
7 66 9
7 74 7
7 75 8
7 80 2
7 81 6
7 85 4
7 88 4
7 91 4
7 98 3
7 100 4
7 106 3
7 107 8
7 108 10
7 109 10
7 113 6
7 121 8
7 123 10
7 129 9
7 131 9
7 141 6
7 143 1
7 145 7
7 168 1
7 174 8
7 179 7
7 182 9
7 185 1
7 193 9
7 194 6
7 199 4
7 200 8
8 11 7
8 17 7
8 19 6
8 20 2
8 21 8
8 23 9
8 27 7
8 29 5
8 33 9
8 36 4
8 45 3
8 46 10
8 54 9
8 56 6
8 58 1
8 65 4
8 67 10
8 74 6
8 85 5
8 95 2
8 97 4
8 103 7
8 107 1
8 109 10
8 111 6
8 118 9
8 124 3
8 127 1
8 130 6
8 131 10
8 133 7
8 136 7
8 142 7
8 145 4
8 146 4
8 154 6
8 157 8
8 164 2
8 165 7
8 169 3
8 183 10
8 189 3
8 191 5
8 192 1
8 199 2
9 11 1
9 20 6
9 23 4
9 24 4
9 27 9
9 28 5
9 36 4
9 39 2
9 44 10
9 59 1
9 62 10
9 66 8
9 67 6
9 73 2
9 74 8
9 84 4
9 88 8
9 92 2
9 100 5
9 107 4
9 112 4
9 114 10
9 130 8
9 131 4
9 139 2
9 145 2
9 148 2
9 151 3
9 156 5
9 158 8
9 160 9
9 167 3
9 172 8
9 173 6
9 177 3
9 186 6
10 18 1
10 20 3
10 21 10
10 36 7
10 39 2
10 50 9
10 51 10
10 56 6
10 59 4
10 71 3
10 76 7
10 88 10
10 89 7
10 97 8
10 107 1
10 120 3
10 121 8
10 125 2
10 127 1
10 137 8
10 141 7
10 151 2
10 157 9
10 159 9
10 179 6
10 181 2
10 185 5
10 200 3
11 12 7
11 24 3
11 25 10
11 31 6
11 36 4
11 38 3
11 48 10
11 49 5
11 55 5
11 57 5
11 58 6
11 62 8
11 63 1
11 66 8
11 67 9
11 71 5
11 86 6
11 90 6
11 96 5
11 99 8
11 104 8
11 105 10
11 110 9
11 114 7
11 115 7
11 119 8
11 120 3
11 121 9
11 122 8
11 142 10
11 143 2
11 148 7
11 149 6
11 151 2
11 153 9
11 157 6
11 166 2
11 168 5
11 171 1
11 175 3
11 177 9
11 184 2
11 186 2
11 187 6
11 188 5
11 196 5
11 198 9
12 28 6
12 30 10
12 37 6
12 42 10
12 58 6
12 59 4
12 64 9
12 67 8
12 68 1
12 69 1
12 72 7
12 73 10
12 83 1
12 86 7
12 89 3
12 92 3
12 94 9
12 96 10
12 105 3
12 106 1
12 119 6
12 132 9
12 136 10
12 156 4
12 167 10
12 174 3
12 179 7
12 194 5
12 197 8
13 16 8
13 29 6
13 32 3
13 37 4
13 38 1
13 66 10
13 75 10
13 77 6
13 96 10
13 104 2
13 107 8
13 109 3
13 110 6
13 111 1
13 127 5
13 138 9
13 143 6
13 146 7
13 148 7
13 161 9
13 162 9
13 169 8
13 175 10
13 178 7
13 185 2
13 187 4
13 190 10
13 191 10
13 192 4
13 200 6
14 31 1
14 33 10
14 35 8
14 41 5
14 46 2
14 47 6
14 51 7
14 53 2
14 56 1
14 57 9
14 58 1
14 64 10
14 66 8
14 67 5
14 74 2
14 81 8
14 84 6
14 88 2
14 90 4
14 91 5
14 92 8
14 94 7
14 95 2
14 96 7
14 103 5
14 104 6
14 105 7
14 106 2
14 109 4
14 117 7
14 118 9
14 120 7
14 125 4
14 128 10
14 132 4
14 135 6
14 143 8
14 144 7
14 145 2
14 146 5
14 166 3
14 167 5
14 168 3
14 171 7
14 180 9
14 181 3
14 182 9
14 183 9
14 185 5
14 187 2
14 188 7
14 192 7
15 26 10
15 34 7
15 44 1
15 45 7
15 60 6
15 62 5
15 63 4
15 68 10
15 71 8
15 78 1
15 82 10
15 86 6
15 89 8
15 91 4
15 92 2
15 93 9
15 97 1
15 106 2
15 113 7
15 115 4
15 117 2
15 127 6
15 128 1
15 129 8
15 134 9
15 138 7
15 141 10
15 144 6
15 145 5
15 157 4
15 158 2
15 159 5
15 164 6
15 168 6
15 171 7
15 178 7
15 179 5
15 185 7
15 186 2
15 187 1
15 193 7
15 200 5
16 19 10
16 34 5
16 45 1
16 47 1
16 59 4
16 63 1
16 75 8
16 81 8
16 82 2
16 83 10
16 94 5
16 97 7
16 100 3
16 106 6
16 109 4
16 110 10
16 111 10
16 112 7
16 135 8
16 139 3
16 143 7
16 148 2
16 150 9
16 152 1
16 155 7
16 180 8
16 187 3
16 200 6
17 18 3
17 19 10
17 28 5
17 33 2
17 34 8
17 36 4
17 43 5
17 45 6
17 50 4
17 54 7
17 57 10
17 67 9
17 70 4
17 91 2
17 92 5
17 99 6
17 100 7
17 101 5
17 102 4
17 103 1
17 104 2
17 110 2
17 120 10
17 121 10
17 130 6
17 132 6
17 143 7
17 146 8
17 148 7
17 149 10
17 155 1
17 167 1
17 174 6
17 181 2
17 184 2
17 186 6
17 192 2
17 194 7
18 20 8
18 28 10
18 30 10
18 32 8
18 40 7
18 42 2
18 44 6
18 48 9
18 52 9
18 83 3
18 85 3
18 95 9
18 102 9
18 107 8
18 111 7
18 112 8
18 117 6
18 118 1
18 122 8
18 124 7
18 130 4
18 131 6
18 134 6
18 140 1
18 149 3
18 150 5
18 151 8
18 160 4
18 169 1
18 175 10
18 179 5
18 193 5
18 195 3
18 197 5
18 200 1
19 21 8
19 25 8
19 32 2
19 33 5
19 39 6
19 43 5
19 45 10
19 52 1
19 61 10
19 62 8
19 71 8
19 76 7
19 79 4
19 81 1
19 89 9
19 98 5
19 99 8
19 102 10
19 104 10
19 107 3
19 109 4
19 122 2
19 131 8
19 134 3
19 136 2
19 148 5
19 149 1
19 150 7
19 161 7
19 169 4
19 170 5
19 171 3
19 175 9
19 176 2
19 178 6
19 194 9
19 196 2
19 200 9
20 24 6
20 29 5
20 31 4
20 38 6
20 45 2
20 49 5
20 59 10
20 62 4
20 68 3
20 71 1
20 80 8
20 85 8
20 88 6
20 92 4
20 97 6
20 100 3
20 105 5
20 111 8
20 113 8
20 118 6
20 120 7
20 122 7
20 124 7
20 128 5
20 129 1
20 132 3
20 133 10
20 134 3
20 135 6
20 138 8
20 139 2
20 142 5
20 146 4
20 147 10
20 153 5
20 157 10
20 160 4
20 161 1
20 162 10
20 166 5
20 167 10
20 172 6
20 174 9
20 177 10
20 182 5
20 185 9
20 187 2
20 188 6
20 193 9
21 24 9
21 32 4
21 43 5
21 50 1
21 53 10
21 54 4
21 59 3
21 74 2
21 79 10
21 81 10
21 96 6
21 99 6
21 110 1
21 119 7
21 122 5
21 126 2
21 128 9
21 137 1
21 142 4
21 145 2
21 157 8
21 164 3
21 166 6
21 179 7
21 182 4
21 188 5
21 190 5
21 192 10
21 194 2
22 26 1
22 36 3
22 48 9
22 51 6
22 55 7
22 59 7
22 63 2
22 65 4
22 67 8
22 68 9
22 70 3
22 71 3
22 76 6
22 79 1
22 86 4
22 87 2
22 92 10
22 102 4
22 105 3
22 107 3
22 117 1
22 127 2
22 128 1
22 138 6
22 141 8
22 142 10
22 144 2
22 149 3
22 158 4
22 166 9
22 169 7
22 172 8
22 176 2
22 180 1
22 191 1
22 193 8
22 199 3
22 200 5
23 25 5
23 30 5
23 39 9
23 51 9
23 57 1
23 62 2
23 67 2
23 69 4
23 72 10
23 80 4
23 82 4
23 83 10
23 86 8
23 87 3
23 93 7
23 101 9
23 102 5
23 103 2
23 106 6
23 107 10
23 118 9
23 119 7
23 123 8
23 124 8
23 126 3
23 130 8
23 141 9
23 143 2
23 144 6
23 147 2
23 151 5
23 159 1
23 165 2
23 167 1
23 175 10
23 179 9
23 190 2
23 198 6
24 27 10
24 37 7
24 45 6
24 51 8
24 55 1
24 64 3
24 68 1
24 70 5
24 75 3
24 77 7
24 80 7
24 84 7
24 95 1
24 99 6
24 100 10
24 102 7
24 103 2
24 104 1
24 108 7
24 111 5
24 112 2
24 114 1
24 119 8
24 123 10
24 137 9
24 152 4
24 153 10
24 160 4
24 164 8
24 166 2
24 178 7
24 180 7
24 183 3
24 184 4
24 186 3
24 188 10
24 196 8
24 199 3
25 28 6
25 33 3
25 35 8
25 42 2
25 45 8
25 55 2
25 68 6
25 77 4
25 86 9
25 92 1
25 97 9
25 99 2
25 105 1
25 114 6
25 124 9
25 125 1
25 129 6
25 151 6
25 167 10
25 176 3
25 180 9
25 183 7
25 186 1
25 192 8
25 195 3
25 198 9
25 200 5
26 28 7
26 30 4
26 41 2
26 45 5
26 46 1
26 47 5
26 49 7
26 51 7
26 61 5
26 63 8
26 64 7
26 69 4
26 71 1
26 72 2
26 76 2
26 77 7
26 84 4
26 86 3
26 89 2
26 91 4
26 104 7
26 107 4
26 112 9
26 113 7
26 115 1
26 127 8
26 129 5
26 130 4
26 133 4
26 134 1
26 142 7
26 143 10
26 146 3
26 147 7
26 150 7
26 163 3
26 168 6
26 170 3
26 171 6
26 177 8
26 180 4
26 182 7
26 194 5
26 198 7
27 45 6
27 48 3
27 55 2
27 56 2
27 65 5
27 67 4
27 75 8
27 76 6
27 78 7
27 83 3
27 85 1
27 86 3
27 91 10
27 92 5
27 96 8
27 100 8
27 112 9
27 114 2
27 115 6
27 118 5
27 122 9
27 124 6
27 125 1
27 128 1
27 134 6
27 145 1
27 152 3
27 158 5
27 159 7
27 162 10
27 163 7
27 176 10
27 179 10
27 183 9
27 193 5
27 200 5
28 30 9
28 31 3
28 42 9
28 44 3
28 45 6
28 52 8
28 65 10
28 75 6
28 76 6
28 87 5
28 98 3
28 106 5
28 107 6
28 111 7
28 115 2
28 122 6
28 123 9
28 126 10
28 127 3
28 131 4
28 140 1
28 144 9
28 153 3
28 159 5
28 170 7
28 181 7
28 187 3
29 30 9
29 35 6
29 39 6
29 41 6
29 45 6
29 48 1
29 61 6
29 63 1
29 69 5
29 81 2
29 82 2
29 83 9
29 84 2
29 91 6
29 99 10
29 104 8
29 107 5
29 125 8
29 128 10
29 130 3
29 132 1
29 133 1
29 134 4
29 141 3
29 148 3
29 151 5
29 153 7
29 154 2
29 158 4
29 159 8
29 164 10
29 171 10
29 172 10
29 176 8
29 177 1
29 179 1
29 188 9
29 190 8
29 192 10
29 199 8
30 34 10
30 38 9
30 39 7
30 44 5
30 47 9
30 52 2
30 54 8
30 56 1
30 61 2
30 63 8
30 71 8
30 76 1
30 87 10
30 89 4
30 94 3
30 98 7
30 104 10
30 112 6
30 113 7
30 118 4
30 120 3
30 125 4
30 131 2
30 137 2
30 139 8
30 148 6
30 157 3
30 161 7
30 164 2
30 165 3
30 169 6
30 171 8
30 172 5
30 191 6
30 198 1
31 33 10
31 35 6
31 42 2
31 50 6
31 53 10
31 59 5
31 62 5
31 63 6
31 67 4
31 73 5
31 85 4
31 90 5
31 91 10
31 96 7
31 107 3
31 111 9
31 120 8
31 122 6
31 130 2
31 134 8
31 140 10
31 144 1
31 153 3
31 163 8
31 172 10
31 182 8
31 184 8
31 192 1
31 193 2
31 197 1
31 199 7
32 34 6
32 42 1
32 43 1
32 44 10
32 47 10
32 51 2
32 55 1
32 56 9
32 65 1
32 66 2
32 73 5
32 74 3
32 82 9
32 87 4
32 91 9
32 92 5
32 96 8
32 97 2
32 99 4
32 106 9
32 116 5
32 131 9
32 135 5
32 137 4
32 147 3
32 148 5
32 149 3
32 152 1
32 156 7
32 160 9
32 166 10
32 169 7
32 177 2
32 179 2
32 182 7
32 188 5
32 190 2
32 191 5
32 196 10
32 198 6
33 48 1
33 56 5
33 58 5
33 60 1
33 67 1
33 71 2
33 75 7
33 83 2
33 94 9
33 97 2
33 98 7
33 100 2
33 108 8
33 110 2
33 115 3
33 118 3
33 119 4
33 120 5
33 133 5
33 141 3
33 143 2
33 149 3
33 169 3
33 179 5
33 180 9
33 184 5
33 188 1
33 190 2
33 197 1
33 200 9
34 41 3
34 46 8
34 52 8
34 54 2
34 55 5
34 56 6
34 69 2
34 80 3
34 82 4
34 83 7
34 87 2
34 92 2
34 99 6
34 111 4
34 122 5
34 124 4
34 131 2
34 138 10
34 143 1
34 153 1
34 157 8
34 163 6
34 170 4
34 171 5
34 176 10
34 181 2
34 182 8
34 194 10
34 196 7
34 198 9
35 38 7
35 39 5
35 45 10
35 47 4
35 50 1
35 51 9
35 55 1
35 60 9
35 64 3
35 66 3
35 71 9
35 73 1
35 77 9
35 78 3
35 81 10
35 82 8
35 85 6
35 91 8
35 122 2
35 123 7
35 129 5
35 135 5
35 140 1
35 146 6
35 149 6
35 151 10
35 153 1
35 162 1
35 180 7
35 194 2
36 37 9
36 38 10
36 43 1
36 44 8
36 45 1
36 56 2
36 62 5
36 75 5
36 78 1
36 82 10
36 84 7
36 86 9
36 90 2
36 91 7
36 100 2
36 102 9
36 123 8
36 126 4
36 133 8
36 134 7
36 137 7
36 138 7
36 139 1
36 157 4
36 159 6
36 173 7
36 174 1
36 175 5
36 182 8
36 183 6
36 185 5
36 194 4
36 197 5
36 198 1
36 200 6
37 40 6
37 48 4
37 51 1
37 52 8
37 59 7
37 64 8
37 70 3
37 73 1
37 77 5
37 81 6
37 87 4
37 90 3
37 98 1
37 100 4
37 103 8
37 108 6
37 109 8
37 111 10
37 117 8
37 122 2
37 125 7
37 132 3
37 136 6
37 139 7
37 140 6
37 146 2
37 153 1
37 163 6
37 164 5
37 165 2
37 167 1
37 175 6
37 178 7
37 181 10
37 185 1
37 187 2
37 194 3
37 196 7
38 39 6
38 40 7
38 54 9
38 55 4
38 56 7
38 57 6
38 64 8
38 72 6
38 77 2
38 82 4
38 83 2
38 85 4
38 88 1
38 90 8
38 96 9
38 103 2
38 110 8
38 116 7
38 132 1
38 136 3
38 138 6
38 141 1
38 151 9
38 154 5
38 160 6
38 161 8
38 165 2
38 166 7
38 176 6
38 178 4
38 185 10
38 193 2
38 197 7
38 199 6
39 41 9
39 49 2
39 51 10
39 52 2
39 70 9
39 71 10
39 72 10
39 77 10
39 81 3
39 83 6
39 89 1
39 90 4
39 91 1
39 94 1
39 117 6
39 118 7
39 124 7
39 129 6
39 137 4
39 142 1
39 147 6
39 154 8
39 165 10
39 175 9
39 177 6
39 179 9
39 184 5
39 185 3
39 186 7
39 192 7
39 193 2
39 196 9
39 197 6
40 42 1
40 50 4
40 53 7
40 55 4
40 75 1
40 77 9
40 78 7
40 81 4
40 90 6
40 93 2
40 94 2
40 107 6
40 115 4
40 119 1
40 128 9
40 132 1
40 138 4
40 139 8
40 143 4
40 144 7
40 159 2
40 160 5
40 162 1
40 167 9
40 168 8
40 169 1
40 171 1
40 175 3
40 185 4
40 186 4
40 190 7
40 193 9
40 198 9
41 42 3
41 50 9
41 56 10
41 68 8
41 69 5
41 70 3
41 71 6
41 80 1
41 82 2
41 89 8
41 91 5
41 104 9
41 112 5
41 114 1
41 127 8
41 128 3
41 134 6
41 135 5
41 148 6
41 151 1
41 154 5
41 155 3
41 159 5
41 160 6
41 166 8
41 173 3
41 181 8
41 187 4
41 195 2
41 197 8
41 198 5
42 56 6
42 63 10
42 71 5
42 73 5
42 77 7
42 78 4
42 82 3
42 84 3
42 90 6
42 95 2
42 96 4
42 103 10
42 111 3
42 118 5
42 128 9
42 134 9
42 141 8
42 144 8
42 150 10
42 154 7
42 156 10
42 162 5
42 164 1
42 165 2
42 169 8
42 171 5
42 179 3
42 189 1
42 190 5
42 191 5
43 44 1
43 56 8
43 57 3
43 58 9
43 62 5
43 66 2
43 67 3
43 73 6
43 76 3
43 83 1
43 85 4
43 105 1
43 113 8
43 121 4
43 125 5
43 128 2
43 140 2
43 144 7
43 157 3
43 160 4
43 162 3
43 169 9
43 175 6
43 176 10
43 177 8
43 183 3
43 184 1
43 187 9
43 196 1
44 56 10
44 60 10
44 68 4
44 69 10
44 71 1
44 78 5
44 82 4
44 84 8
44 87 9
44 94 2
44 109 2
44 124 4
44 127 6
44 129 3
44 133 4
44 134 6
44 139 4
44 140 7
44 149 8
44 158 8
44 161 10
44 162 1
44 163 2
44 165 7
44 167 5
44 171 1
44 173 2
44 175 6
44 183 1
44 184 5
44 192 6
44 194 6
45 54 7
45 56 7
45 62 4
45 65 7
45 71 4
45 81 10
45 89 4
45 90 1
45 93 4
45 96 2
45 97 7
45 99 8
45 109 6
45 115 6
45 116 2
45 117 6
45 128 4
45 129 9
45 139 3
45 141 10
45 158 2
45 161 8
45 176 2
45 179 8
45 181 6
45 185 1
45 187 7
45 188 8
45 190 10
45 194 10
45 197 4
46 47 8
46 55 1
46 56 7
46 67 7
46 70 8
46 71 10
46 74 8
46 78 3
46 83 10
46 84 8
46 87 8
46 108 5
46 114 1
46 116 1
46 120 4
46 129 7
46 131 6
46 135 1
46 146 6
46 151 5
46 157 3
46 158 10
46 177 5
46 181 5
46 184 5
46 188 10
46 194 1
46 195 7
47 52 5
47 61 6
47 62 1
47 64 2
47 72 7
47 73 5
47 78 3
47 79 1
47 80 4
47 81 3
47 86 1
47 89 10
47 96 5
47 105 6
47 107 6
47 110 8
47 115 7
47 117 5
47 121 8
47 126 1
47 129 1
47 130 6
47 131 2
47 132 4
47 135 1
47 137 10
47 141 5
47 143 9
47 144 1
47 149 2
47 153 3
47 155 8
47 158 4
47 159 7
47 164 6
47 165 7
47 168 1
47 176 4
47 177 6
47 183 1
47 188 5
47 190 3
47 192 10
47 196 8
47 200 9
48 57 5
48 69 4
48 73 7
48 80 2
48 92 4
48 102 8
48 103 3
48 107 7
48 113 2
48 120 6
48 135 5
48 143 6
48 148 10
48 152 6
48 154 6
48 168 4
48 169 9
48 173 3
48 175 1
48 178 3
48 182 3
48 189 2
49 51 5
49 53 9
49 56 9
49 59 2
49 60 4
49 64 7
49 65 7
49 68 6
49 80 4
49 82 10
49 83 4
49 86 5
49 91 5
49 107 8
49 111 8
49 114 9
49 120 4
49 122 3
49 126 10
49 128 7
49 133 7
49 134 5
49 143 9
49 150 2
49 153 8
49 154 9
49 158 8
49 162 7
49 168 9
49 173 3
49 178 5
49 191 8
49 192 8
49 199 5
49 200 3
50 51 7
50 57 1
50 63 5
50 71 6
50 72 6
50 73 3
50 75 1
50 77 2
50 78 8
50 87 2
50 92 4
50 93 5
50 95 4
50 97 3
50 99 10
50 103 5
50 107 2
50 112 6
50 117 10
50 123 1
50 125 4
50 129 8
50 132 7
50 142 10
50 148 2
50 149 8
50 150 5
50 153 10
50 154 3
50 158 5
50 160 4
50 163 7
50 164 3
50 165 2
50 168 10
50 179 4
50 181 2
50 185 6
50 187 5
50 188 10
50 193 5
50 194 5
50 199 10
50 200 6
51 58 6
51 62 9
51 67 9
51 79 8
51 81 4
51 90 7
51 91 3
51 95 3
51 102 6
51 110 5
51 111 9
51 116 7
51 123 4
51 138 3
51 145 4
51 146 5
51 152 8
51 159 10
51 166 1
51 171 1
51 172 9
51 175 9
51 184 9
51 193 9
51 198 10
51 200 10
52 55 7
52 56 8
52 63 2
52 73 7
52 75 2
52 88 2
52 92 9
52 95 6
52 96 1
52 104 7
52 107 6
52 108 4
52 112 5
52 113 1
52 117 7
52 119 9
52 121 2
52 129 6
52 130 3
52 131 8
52 132 8
52 135 5
52 137 10
52 138 3
52 141 8
52 142 7
52 150 3
52 166 6
52 176 1
52 177 6
52 178 9
52 196 3
52 200 10
53 68 5
53 69 9
53 70 3
53 71 8
53 78 6
53 85 8
53 93 10
53 94 8
53 101 9
53 104 3
53 105 10
53 109 5
53 110 1
53 117 5
53 118 9
53 124 2
53 127 4
53 128 1
53 148 8
53 149 3
53 157 7
53 159 4
53 168 2
53 176 5
53 177 4
53 187 5
53 188 10
53 190 5
53 191 2
53 194 9
53 200 4
54 57 1
54 60 3
54 68 10
54 69 3
54 72 10
54 80 3
54 87 6
54 97 9
54 98 9
54 102 6
54 107 2
54 110 1
54 115 2
54 117 3
54 121 3
54 122 7
54 123 1
54 129 10
54 132 6
54 138 3
54 150 3
54 161 6
54 162 8
54 173 5
54 189 7
54 192 8
54 194 7
55 57 3
55 58 7
55 59 8
55 60 9
55 66 4
55 67 5
55 70 9
55 72 1
55 73 10
55 75 8
55 77 6
55 79 3
55 81 6
55 84 10
55 95 9
55 101 3
55 102 10
55 108 6
55 110 8
55 113 8
55 120 8
55 121 10
55 130 2
55 132 9
55 139 10
55 141 10
55 149 1
55 155 7
55 157 1
55 163 8
55 164 5
55 165 3
55 166 8
55 171 4
55 177 3
55 181 5
55 183 6
55 186 10
55 192 6
55 193 2
55 197 7
56 62 5
56 63 1
56 65 1
56 67 4
56 70 2
56 72 6
56 73 1
56 77 10
56 82 9
56 87 2
56 90 8
56 95 3
56 98 1
56 107 1
56 108 7
56 116 6
56 125 1
56 127 10
56 133 3
56 134 8
56 138 6
56 143 1
56 145 7
56 147 1
56 154 7
56 155 6
56 157 10
56 172 4
56 176 8
56 186 2
56 192 3
56 198 8
57 62 7
57 65 4
57 68 3
57 71 1
57 72 4
57 76 1
57 78 8
57 79 3
57 83 9
57 84 8
57 97 2
57 99 5
57 131 3
57 136 9
57 138 9
57 143 9
57 147 9
57 150 3
57 156 10
57 159 3
57 183 4
57 184 8
57 187 6
57 198 9
58 62 8
58 68 4
58 74 1
58 75 6
58 78 9
58 79 6
58 80 8
58 86 10
58 93 3
58 95 1
58 100 8
58 103 6
58 105 8
58 106 10
58 118 3
58 124 10
58 125 9
58 132 5
58 139 8
58 145 8
58 147 2
58 154 1
58 155 9
58 161 3
58 163 7
58 173 7
58 176 10
58 179 5
58 186 5
58 192 7
58 198 5
58 199 6
58 200 9
59 64 7
59 76 2
59 78 1
59 84 2
59 94 10
59 99 7
59 112 3
59 119 3
59 122 1
59 123 2
59 125 3
59 126 4
59 131 7
59 135 8
59 153 2
59 155 2
59 157 1
59 167 3
59 169 8
59 173 5
59 175 5
59 176 1
59 179 1
59 180 6
59 183 4
59 186 5
59 188 6
59 191 6
59 192 1
59 193 8
60 63 3
60 72 3
60 78 9
60 82 8
60 84 3
60 87 2
60 90 3
60 94 1
60 95 10
60 104 1
60 110 8
60 114 2
60 115 6
60 116 4
60 130 10
60 144 9
60 146 6
60 155 6
60 162 2
60 180 4
60 184 5
60 190 3
60 194 7
60 195 4
61 62 9
61 68 9
61 78 8
61 85 8
61 89 2
61 95 4
61 104 8
61 127 8
61 140 5
61 171 3
61 174 8
61 177 1
61 178 6
61 186 5
61 196 8
61 197 9
62 69 3
62 75 8
62 78 2
62 79 10
62 85 2
62 90 10
62 98 2
62 104 8
62 110 8
62 111 6
62 114 3
62 119 10
62 127 7
62 129 5
62 133 10
62 134 3
62 143 2
62 160 5
62 162 2
62 174 8
62 177 7
62 178 6
62 179 9
62 190 5
62 192 3
62 195 10
62 197 10
62 200 6
63 64 9
63 73 10
63 81 3
63 86 1
63 96 5
63 103 3
63 107 5
63 111 5
63 119 10
63 133 6
63 143 6
63 144 8
63 145 6
63 155 4
63 162 4
63 165 5
63 171 10
63 200 8
64 74 10
64 77 4
64 79 8
64 83 5
64 86 6
64 89 9
64 102 3
64 112 2
64 119 2
64 120 4
64 126 3
64 137 8
64 140 7
64 147 5
64 150 9
64 153 10
64 154 3
64 156 8
64 160 5
64 161 10
64 163 6
64 167 10
64 168 3
64 172 1
64 176 1
64 177 2
64 182 3
64 183 1
64 187 2
64 188 4
64 195 10
64 196 10
64 200 9
65 67 4
65 68 2
65 69 7
65 70 8
65 73 4
65 76 9
65 88 7
65 92 5
65 96 10
65 97 10
65 98 2
65 100 7
65 104 10
65 107 5
65 111 1
65 120 9
65 129 7
65 130 10
65 131 1
65 135 5
65 140 7
65 147 1
65 152 8
65 161 9
65 164 8
65 167 10
65 169 5
65 179 5
65 183 3
65 192 1
65 195 8
65 200 5
66 90 9
66 97 5
66 104 10
66 120 7
66 125 8
66 135 7
66 137 3
66 147 9
66 148 5
66 152 3
66 154 3
66 166 6
66 167 2
66 173 6
66 190 9
66 192 5
66 194 9
66 195 4
66 196 7
67 70 2
67 71 6
67 76 4
67 79 7
67 89 1
67 92 7
67 96 6
67 103 4
67 119 1
67 120 7
67 122 10
67 123 1
67 125 10
67 128 10
67 130 3
67 133 1
67 146 7
67 151 3
67 159 4
67 165 2
67 171 6
67 173 2
68 75 4
68 78 8
68 83 10
68 85 8
68 87 6
68 105 8
68 110 5
68 123 2
68 129 4
68 132 3
68 135 2
68 145 9
68 153 10
68 154 1
68 156 5
68 163 2
68 170 7
68 180 4
68 183 8
68 189 9
68 200 8
69 74 10
69 77 7
69 78 2
69 84 1
69 88 10
69 89 1
69 95 3
69 100 8
69 103 6
69 105 9
69 115 2
69 126 10
69 139 4
69 150 6
69 154 6
69 158 3
69 160 7
69 162 8
69 166 8
69 170 2
69 173 3
69 175 9
69 177 6
69 186 1
69 187 5
69 190 2
69 192 8
69 200 1
70 80 6
70 81 6
70 82 2
70 86 5
70 91 9
70 97 1
70 99 7
70 100 2
70 101 9
70 102 4
70 103 7
70 104 8
70 106 5
70 112 6
70 115 1
70 125 7
70 128 5
70 131 1
70 133 5
70 135 3
70 137 2
70 149 10
70 153 3
70 155 10
70 163 7
70 178 3
70 191 1
70 192 6
70 194 10
70 197 7
70 198 8
71 72 1
71 73 8
71 76 7
71 78 6
71 83 3
71 85 7
71 93 9
71 101 6
71 102 2
71 113 8
71 119 8
71 121 7
71 122 10
71 131 2
71 133 3
71 136 2
71 144 9
71 146 4
71 159 8
71 166 3
71 169 10
71 179 7
71 180 1
71 184 9
71 185 10
71 188 6
71 190 6
71 193 1
72 73 3
72 76 5
72 77 2
72 90 2
72 92 2
72 105 6
72 111 10
72 117 1
72 120 9
72 122 1
72 123 4
72 126 8
72 130 9
72 139 5
72 149 6
72 150 2
72 151 1
72 152 6
72 155 3
72 162 10
72 169 1
72 176 1
72 178 8
72 185 4
72 188 4
72 197 4
72 200 5
73 78 4
73 79 1
73 87 6
73 92 9
73 98 8
73 102 5
73 105 9
73 107 6
73 110 2
73 115 4
73 117 7
73 119 6
73 121 4
73 122 2
73 125 1
73 127 10
73 134 9
73 145 1
73 150 7
73 155 7
73 183 8
73 185 9
73 189 3
73 191 8
73 192 4
73 193 2
73 194 9
73 195 9
73 196 9
73 197 4
73 198 10
73 200 1
74 82 10
74 89 1
74 94 1
74 98 4
74 101 9
74 105 1
74 106 5
74 107 4
74 111 9
74 116 9
74 118 3
74 128 4
74 133 6
74 134 9
74 137 2
74 143 7
74 150 1
74 155 2
74 167 1
74 177 8
74 180 1
74 187 8
74 188 1
74 190 3
74 197 2
74 199 10
75 82 1
75 89 2
75 97 4
75 98 5
75 112 2
75 115 6
75 117 9
75 132 5
75 141 5
75 154 8
75 155 1
75 162 3
75 173 4
75 174 1
75 185 1
75 190 3
75 195 7
75 200 8
76 77 8
76 78 5
76 82 5
76 93 6
76 96 9
76 102 7
76 103 5
76 115 1
76 122 2
76 131 10
76 135 3
76 141 1
76 144 10
76 157 7
76 160 2
76 169 7
76 170 9
76 176 5
76 178 4
76 184 10
76 188 7
76 192 6
76 198 2
77 81 9
77 83 4
77 86 8
77 100 5
77 106 5
77 122 2
77 133 1
77 138 7
77 141 1
77 143 3
77 144 1
77 146 7
77 149 10
77 150 8
77 151 7
77 155 9
77 168 7
77 169 5
77 172 9
77 180 2
77 183 7
77 188 3
77 197 10
77 198 6
78 79 8
78 84 5
78 92 4
78 98 3
78 111 8
78 113 10
78 115 9
78 119 8
78 127 2
78 128 2
78 134 8
78 138 1
78 141 7
78 143 6
78 145 9
78 147 1
78 156 7
78 157 10
78 161 6
78 165 9
78 167 4
78 179 10
78 184 1
78 186 3
78 187 8
78 188 5
78 198 1
79 94 8
79 105 6
79 107 8
79 111 2
79 122 9
79 128 2
79 135 9
79 138 8
79 147 10
79 150 6
79 151 8
79 152 9
79 155 9
79 157 4
79 162 10
79 165 3
79 168 10
79 173 4
79 177 9
79 180 4
79 181 8
79 192 9
79 194 1
79 197 5
79 199 1
80 81 9
80 82 1
80 84 5
80 88 6
80 89 5
80 91 8
80 92 6
80 94 8
80 100 5
80 106 2
80 112 6
80 113 5
80 135 6
80 143 5
80 146 2
80 154 5
80 156 5
80 157 5
80 161 8
80 162 1
80 166 3
80 168 1
80 173 2
80 187 5
80 193 7
80 197 8
81 82 4
81 84 6
81 90 10
81 99 6
81 101 1
81 104 1
81 108 6
81 122 1
81 129 1
81 134 8
81 145 1
81 146 4
81 151 5
81 156 6
81 162 10
81 165 4
81 174 4
81 178 8
81 186 6
81 188 3
81 190 1
81 195 10
81 199 5
81 200 7
82 84 8
82 87 6
82 92 8
82 97 6
82 99 1
82 108 5
82 109 7
82 118 7
82 120 4
82 121 3
82 128 10
82 131 2
82 139 5
82 140 7
82 145 5
82 149 9
82 150 7
82 160 1
82 161 1
82 164 10
82 165 7
82 166 4
82 169 9
82 170 9
82 172 8
82 173 3
82 175 2
82 178 4
82 185 7
82 186 9
82 191 9
82 193 2
83 84 7
83 85 1
83 87 9
83 99 5
83 107 6
83 108 10
83 110 6
83 111 6
83 117 6
83 118 7
83 138 8
83 146 9
83 149 3
83 152 3
83 154 10
83 156 4
83 164 2
83 178 8
83 181 9
83 185 4
83 188 8
83 192 5
83 199 3
84 94 1
84 97 4
84 105 10
84 107 9
84 117 10
84 121 3
84 124 8
84 127 3
84 128 7
84 143 5
84 146 7
84 151 6
84 156 7
84 166 4
84 167 9
84 170 1
84 174 4
84 177 7
84 179 2
84 185 2
84 198 2
85 88 7
85 89 8
85 95 4
85 101 5
85 102 3
85 109 7
85 118 6
85 121 6
85 124 6
85 126 1
85 127 6
85 132 6
85 137 5
85 138 1
85 147 10
85 148 6
85 149 6
85 152 6
85 155 2
85 159 2
85 161 8
85 168 4
85 172 4
85 180 8
85 183 9
85 197 7
86 92 7
86 93 2
86 99 10
86 104 5
86 112 1
86 114 10
86 117 7
86 121 4
86 122 4
86 125 1
86 130 8
86 136 9
86 158 4
86 162 2
86 164 6
86 168 2
86 172 9
86 175 6
86 182 9
86 190 3
86 193 4
87 94 2
87 98 6
87 101 7
87 107 6
87 113 10
87 115 7
87 122 1
87 127 9
87 131 3
87 132 10
87 139 6
87 141 10
87 144 6
87 148 9
87 152 10
87 155 10
87 156 2
87 163 6
87 165 1
87 167 6
87 168 3
87 177 6
87 178 5
88 91 9
88 93 4
88 106 9
88 111 9
88 114 10
88 120 2
88 126 3
88 131 7
88 132 3
88 134 10
88 139 5
88 143 7
88 145 2
88 149 4
88 150 4
88 156 9
88 159 9
88 164 5
88 166 8
88 168 6
88 174 4
88 179 5
88 181 6
88 185 10
88 189 6
88 196 9
89 94 4
89 96 1
89 105 1
89 110 8
89 117 4
89 121 3
89 123 7
89 136 8
89 139 7
89 142 5
89 146 9
89 148 7
89 158 9
89 159 2
89 162 2
89 165 5
89 177 10
89 183 2
89 186 10
89 193 5
89 200 4
90 91 2
90 93 8
90 99 10
90 107 8
90 115 9
90 123 4
90 124 10
90 129 1
90 136 7
90 137 3
90 142 8
90 148 7
90 149 10
90 157 3
90 159 1
90 160 6
90 173 4
90 175 1
90 180 2
90 184 4
90 186 5
90 199 2
91 92 8
91 108 3
91 114 1
91 116 2
91 128 5
91 132 1
91 135 5
91 136 9
91 143 6
91 144 8
91 146 5
91 148 10
91 151 5
91 152 3
91 157 7
91 161 4
91 166 8
91 170 10
91 174 5
91 175 3
91 177 8
91 183 1
91 184 2
91 193 8
91 195 7
92 96 3
92 99 4
92 103 8
92 111 4
92 114 9
92 116 7
92 133 9
92 134 9
92 137 3
92 150 8
92 151 7
92 152 4
92 153 5
92 155 1
92 156 4
92 157 2
92 158 6
92 162 7
92 168 4
92 172 10
92 178 9
92 188 1
92 192 3
93 94 6
93 104 8
93 110 5
93 117 9
93 128 9
93 130 5
93 132 2
93 135 8
93 141 3
93 151 1
93 163 6
93 173 8
93 182 7
93 190 3
93 192 6
93 193 5
93 196 1
93 198 9
93 199 7
94 97 6
94 104 4
94 105 2
94 106 10
94 112 4
94 130 9
94 134 2
94 138 4
94 140 3
94 148 7
94 152 4
94 153 9
94 173 3
94 175 8
94 177 5
94 178 6
94 180 9
94 183 4
94 186 4
94 188 7
94 191 4
94 195 4
95 97 4
95 109 9
95 112 8
95 114 10
95 118 6
95 122 4
95 124 2
95 131 10
95 141 4
95 150 9
95 154 10
95 167 5
95 168 3
95 169 2
95 194 2
95 195 7
95 196 10
95 197 9
96 98 10
96 107 2
96 120 1
96 146 9
96 148 8
96 175 9
96 176 7
96 179 9
96 187 6
96 194 9
96 195 5
97 108 1
97 110 2
97 117 8
97 120 4
97 122 1
97 125 5
97 129 4
97 130 1
97 131 4
97 143 3
97 147 6
97 148 8
97 153 8
97 154 7
97 156 3
97 168 1
97 173 3
97 178 9
97 180 9
97 185 3
97 187 8
97 198 10
98 110 5
98 112 4
98 113 5
98 121 4
98 126 7
98 129 9
98 131 1
98 138 10
98 142 6
98 145 4
98 151 3
98 152 5
98 154 8
98 169 8
98 172 8
98 191 10
99 106 4
99 107 2
99 117 9
99 120 2
99 121 7
99 122 8
99 130 5
99 133 2
99 143 10
99 146 4
99 155 1
99 169 1
99 182 3
99 185 10
99 191 1
99 194 7
99 196 4
100 101 7
100 102 1
100 108 9
100 109 7
100 113 2
100 120 10
100 124 6
100 129 2
100 133 6
100 138 5
100 145 8
100 148 1
100 154 5
100 172 2
100 175 5
100 178 8
100 184 7
100 186 5
100 191 9
100 193 7
100 194 9
100 196 1
101 104 10
101 107 3
101 109 3
101 110 7
101 127 6
101 128 10
101 136 2
101 142 1
101 147 7
101 149 10
101 152 2
101 158 10
101 169 4
101 171 4
101 173 5
101 176 8
101 192 3
101 200 2
102 104 10
102 111 2
102 113 2
102 115 9
102 122 1
102 132 9
102 136 6
102 138 5
102 142 2
102 148 3
102 153 3
102 163 7
102 172 7
102 175 6
102 196 10
103 106 2
103 109 2
103 114 4
103 125 4
103 128 6
103 135 10
103 136 6
103 144 9
103 154 1
103 163 3
103 164 7
103 170 9
103 172 2
103 174 9
103 179 3
103 190 8
104 110 6
104 115 8
104 125 6
104 129 5
104 134 7
104 146 6
104 156 6
104 160 3
104 169 3
104 179 2
104 182 8
104 184 6
104 191 8
104 193 9
104 196 9
104 198 9
105 111 8
105 117 1
105 121 3
105 123 4
105 131 2
105 132 7
105 138 7
105 146 3
105 147 6
105 154 9
105 159 1
105 168 3
105 173 8
105 186 2
105 187 10
105 193 9
105 195 2
105 196 3
105 197 4
105 199 7
105 200 1
106 109 6
106 113 5
106 120 8
106 127 7
106 132 8
106 133 4
106 138 10
106 143 7
106 144 4
106 159 10
106 165 2
106 169 8
106 170 4
106 176 6
106 179 5
106 185 2
106 190 4
106 194 9
106 195 6
106 196 9
107 109 10
107 110 3
107 123 5
107 124 9
107 139 10
107 141 10
107 148 10
107 149 8
107 157 9
107 164 10
107 169 3
107 172 7
107 186 6
107 189 7
107 191 3
107 194 8
108 110 10
108 114 5
108 115 4
108 118 4
108 122 5
108 125 6
108 132 7
108 133 9
108 135 4
108 137 3
108 142 5
108 144 3
108 148 9
108 150 4
108 165 9
108 166 10
108 169 4
108 182 7
108 187 6
108 189 5
108 195 3
108 196 7
109 114 6
109 115 9
109 116 6
109 118 6
109 121 5
109 130 3
109 148 6
109 150 2
109 151 10
109 156 3
109 180 5
109 184 6
109 188 6
109 190 10
109 200 2
110 113 4
110 115 10
110 127 4
110 128 5
110 135 9
110 149 6
110 163 4
110 172 3
110 175 7
110 178 1
110 181 1
110 190 3
110 193 9
110 198 7
110 200 5
111 113 10
111 121 1
111 122 4
111 130 10
111 137 5
111 140 5
111 148 9
111 156 6
111 166 4
111 168 8
111 169 3
111 178 10
111 181 7
111 195 8
111 197 7
111 198 1
111 200 1
112 115 7
112 117 9
112 119 8
112 123 10
112 134 1
112 137 9
112 138 2
112 139 7
112 140 10
112 146 6
112 152 10
112 153 1
112 155 9
112 160 1
112 163 2
112 164 9
112 171 4
112 182 2
112 183 6
112 193 5
112 198 1
112 200 6
113 117 6
113 125 3
113 126 5
113 129 4
113 130 4
113 141 2
113 144 8
113 154 6
113 161 9
113 164 1
113 172 4
113 181 1
113 182 4
113 184 7
113 194 9
113 196 8
113 198 7
114 115 1
114 117 5
114 124 1
114 139 8
114 150 10
114 164 7
114 165 10
114 168 8
114 174 7
114 177 9
114 179 2
114 188 5
114 190 3
115 116 1
115 118 3
115 119 4
115 121 10
115 138 5
115 139 5
115 142 1
115 144 8
115 145 9
115 148 2
115 150 5
115 151 2
115 152 10
115 156 7
115 157 6
115 163 8
115 166 3
115 171 6
115 173 5
115 174 4
115 178 8
116 122 2
116 125 6
116 142 1
116 143 10
116 161 8
116 165 4
116 167 9
116 188 9
116 194 8
117 123 1
117 129 2
117 134 7
117 138 2
117 139 10
117 147 9
117 157 7
117 165 8
117 174 1
117 181 4
117 182 7
117 190 10
117 192 5
118 120 2
118 122 5
118 124 1
118 133 7
118 134 3
118 138 5
118 139 3
118 142 6
118 147 4
118 164 4
118 173 7
118 179 9
118 186 1
118 193 3
118 195 10
119 125 1
119 128 9
119 136 6
119 140 8
119 147 4
119 156 3
119 157 10
119 167 5
119 169 10
119 173 1
119 176 2
119 192 4
119 194 6
119 198 3
119 200 1
120 132 7
120 139 8
120 141 4
120 144 5
120 151 7
120 157 2
120 169 1
120 170 4
120 177 8
120 184 7
120 194 9
121 123 8
121 124 1
121 127 5
121 130 3
121 134 3
121 139 6
121 142 8
121 145 5
121 154 7
121 162 4
121 163 5
121 168 10
121 169 2
121 175 1
121 181 8
121 192 6
121 193 8
122 123 9
122 136 5
122 137 5
122 138 5
122 158 9
122 160 2
122 161 1
122 170 2
122 172 10
122 176 8
122 178 8
122 190 1
122 199 2
123 126 10
123 132 6
123 137 3
123 139 9
123 151 5
123 162 7
123 175 9
123 180 8
123 181 4
123 189 7
123 192 3
123 200 5
124 128 7
124 131 3
124 135 3
124 136 10
124 138 9
124 147 10
124 152 8
124 156 6
124 169 2
124 171 2
124 173 2
124 186 3
124 192 6
124 193 4
125 126 10
125 127 4
125 129 5
125 132 2
125 133 7
125 136 4
125 139 6
125 140 2
125 145 9
125 146 2
125 150 5
125 154 2
125 164 8
125 184 2
125 189 5
125 191 7
125 195 10
126 129 5
126 130 4
126 132 2
126 141 4
126 144 10
126 148 6
126 151 1
126 154 9
126 159 7
126 162 8
126 163 4
126 168 6
126 169 9
126 173 9
126 185 6
126 188 7
126 197 3
127 132 10
127 134 4
127 136 9
127 141 10
127 146 3
127 147 7
127 151 5
127 165 8
127 173 9
127 179 7
127 180 9
128 129 3
128 132 6
128 136 2
128 138 2
128 140 5
128 142 6
128 152 9
128 154 8
128 155 4
128 156 3
128 159 9
128 162 5
128 164 3
128 170 10
128 178 10
128 185 2
128 191 9
129 132 2
129 133 5
129 136 1
129 138 1
129 139 8
129 140 10
129 145 10
129 151 5
129 158 9
129 160 1
129 172 9
129 174 1
129 177 6
129 180 5
129 183 2
129 187 9
129 189 7
129 190 1
129 197 1
129 199 10
129 200 7
130 131 1
130 141 1
130 142 3
130 143 10
130 148 7
130 153 3
130 168 9
130 169 6
130 172 8
130 176 4
130 178 6
130 185 7
130 187 5
130 189 5
130 191 3
130 194 3
131 134 1
131 137 4
131 142 5
131 158 1
131 187 9
132 133 3
132 137 10
132 143 8
132 156 6
132 163 7
132 167 8
132 183 7
132 191 6
133 140 2
133 152 6
133 154 9
133 158 9
133 160 8
133 163 4
133 164 9
133 166 9
133 169 8
133 177 2
133 190 4
133 194 5
134 137 9
134 138 5
134 144 10
134 146 2
134 148 9
134 152 9
134 153 7
134 158 1
134 160 5
134 173 6
134 176 7
134 178 8
134 184 6
134 185 4
134 187 8
134 189 6
134 196 7
135 141 7
135 150 8
135 156 2
135 162 5
135 167 2
135 172 10
135 176 2
135 177 8
135 193 9
136 146 1
136 150 3
136 152 7
136 159 3
136 161 10
136 165 6
136 171 9
136 176 9
136 189 2
136 194 3
137 147 7
137 148 3
137 152 4
137 153 10
137 155 3
137 156 6
137 159 4
137 161 2
137 168 6
137 188 10
137 193 8
137 198 4
137 199 3
138 141 3
138 146 5
138 148 2
138 155 8
138 161 3
138 162 8
138 164 8
138 166 6
138 174 2
138 180 5
138 182 1
138 186 1
138 193 8
138 200 4
139 140 8
139 147 1
139 150 5
139 158 9
139 160 7
139 166 7
139 167 2
139 176 5
139 179 7
139 180 1
139 185 8
139 186 7
139 187 6
139 196 7
139 198 10
139 200 3
140 154 7
140 165 7
140 172 5
140 174 5
140 176 1
140 182 1
140 195 9
140 197 4
140 199 3
141 142 10
141 147 5
141 150 7
141 152 6
141 155 7
141 158 4
141 160 8
141 169 1
141 171 2
141 175 9
141 177 9
141 180 10
141 184 9
141 185 2
141 186 8
141 187 5
141 196 4
142 161 6
142 168 2
142 171 8
142 172 4
142 183 1
142 184 4
142 189 4
142 194 5
143 144 1
143 152 6
143 159 4
143 160 10
143 161 5
143 168 7
143 170 2
143 178 5
143 179 1
143 180 2
143 192 8
143 199 4
144 147 9
144 152 1
144 153 5
144 158 5
144 160 1
144 164 9
144 165 9
144 173 9
144 178 6
144 189 7
144 193 9
145 159 1
145 164 7
145 180 6
145 183 9
145 191 10
145 200 6
146 147 2
146 150 7
146 155 5
146 169 5
146 175 1
146 181 5
146 184 6
146 189 9
146 191 7
146 197 9
147 151 7
147 159 9
147 162 10
147 164 6
147 173 10
147 177 9
147 181 5
147 184 6
147 187 6
147 188 5
147 197 8
148 153 4
148 157 1
148 170 1
148 196 10
148 197 1
148 198 10
149 153 2
149 159 7
149 163 3
149 172 5
149 178 10
149 181 7
149 183 8
149 190 3
149 191 8
150 154 6
150 155 3
150 156 2
150 157 7
150 163 7
150 167 7
150 177 1
150 180 4
150 181 10
150 182 4
150 184 7
150 186 7
150 189 8
150 190 6
150 195 7
151 159 2
151 160 7
151 168 10
151 169 7
151 170 7
151 171 4
151 176 2
151 177 1
151 179 10
151 182 7
151 183 9
152 155 6
152 157 5
152 178 9
152 183 9
152 184 4
152 185 4
152 187 4
152 198 8
152 199 2
153 169 1
153 180 7
153 185 4
153 195 8
154 156 3
154 157 8
154 175 6
154 191 5
154 199 9
155 160 9
155 165 7
155 171 3
155 172 3
155 175 3
155 176 5
155 181 9
155 182 7
155 184 9
155 185 1
155 186 10
155 188 6
155 199 3
156 162 8
156 163 6
156 171 2
156 173 9
156 180 4
156 189 6
156 190 9
156 196 8
156 199 6
156 200 9
157 160 8
157 168 9
157 169 3
157 182 7
157 190 5
157 194 1
158 160 7
158 165 1
158 175 3
158 176 2
158 181 6
158 187 4
158 188 3
158 192 9
158 199 4
159 173 1
159 178 6
159 181 9
159 182 4
159 185 8
159 188 2
159 191 2
159 193 7
160 161 2
160 175 3
160 180 10
160 187 8
160 188 8
160 191 9
160 193 3
160 200 3
161 165 7
161 169 8
161 182 2
161 184 9
161 186 2
161 191 2
161 193 8
161 197 2
161 199 3
162 169 1
162 170 8
162 172 10
162 187 1
162 190 6
162 193 10
163 171 10
163 174 3
163 177 1
163 179 4
163 181 7
163 183 10
163 191 7
163 194 8
163 196 4
163 200 10
164 166 2
164 169 4
164 172 6
164 176 2
164 181 10
164 191 5
164 196 10
165 166 10
165 171 1
165 172 4
165 173 8
165 178 7
165 179 6
165 185 1
165 187 3
165 188 6
165 190 5
165 194 1
165 198 2
166 170 4
166 172 4
166 174 8
166 175 3
166 182 2
166 183 8
166 191 10
166 197 1
167 171 8
168 171 3
168 177 10
168 180 3
168 182 9
168 185 9
168 189 2
168 191 3
168 194 8
168 195 6
169 176 4
169 177 1
169 187 4
169 194 2
169 199 3
170 171 3
170 175 8
170 192 5
170 196 6
170 197 9
170 198 4
171 173 3
171 181 8
171 184 3
171 195 10
171 197 2
172 174 8
172 175 10
172 177 8
172 183 8
172 186 4
173 175 3
173 176 7
173 183 3
173 184 10
174 181 9
174 183 2
174 184 10
174 185 7
174 193 8
175 179 8
175 181 2
175 188 10
175 189 3
175 190 9
175 196 2
175 199 3
176 178 7
176 182 2
176 185 4
176 186 8
177 180 5
177 183 1
177 188 9
177 191 8
177 198 3
177 200 1
178 180 1
178 189 7
178 194 9
179 180 7
179 181 6
179 183 8
179 186 6
179 192 6
179 198 9
180 181 5
180 185 1
180 196 3
182 198 9
183 184 4
183 186 10
183 191 2
183 196 6
183 197 5
183 199 2
184 190 5
184 196 10
184 197 2
184 198 6
185 186 5
185 193 5
185 197 5
186 195 10
186 200 8
187 188 8
187 194 10
187 199 8
187 200 4
188 195 2
188 196 2
188 199 9
189 190 10
189 194 6
189 195 1
189 197 2
190 194 5
190 198 4
191 193 9
191 194 3
191 197 7
193 197 9
194 197 3
194 200 7
196 197 10
