200 13930 550
6
5
9
10
1
7
6
4
9
7
3
2
6
8
8
4
4
6
8
5
7
4
2
7
3
10
3
1
4
9
6
10
9
8
4
7
4
6
4
8
2
8
9
5
7
1
8
3
2
7
5
5
2
10
6
1
9
4
9
3
3
9
4
10
4
2
9
7
6
4
3
3
4
5
3
7
10
9
3
1
7
4
2
3
5
9
2
8
1
7
7
2
5
4
9
9
4
3
3
4
2
8
9
7
3
1
3
6
10
9
10
1
2
7
8
6
9
9
3
4
2
5
8
10
2
6
2
8
2
5
9
4
8
6
8
9
6
9
6
10
1
8
5
7
1
10
6
5
6
8
7
2
10
7
9
2
3
3
1
7
3
6
6
8
1
4
6
5
1
5
2
10
4
4
6
4
3
4
6
1
10
1
9
10
9
2
4
1
5
7
8
7
9
2
5
4
10
8
6
10
1 3 3
1 4 2
1 6 9
1 8 6
1 9 6
1 10 7
1 11 9
1 14 1
1 15 10
1 16 4
1 17 8
1 18 1
1 21 4
1 23 10
1 24 5
1 25 1
1 26 10
1 27 1
1 29 8
1 31 5
1 32 8
1 33 9
1 34 4
1 37 7
1 38 2
1 39 5
1 41 9
1 42 2
1 43 7
1 44 1
1 45 1
1 49 4
1 50 1
1 51 4
1 53 10
1 54 3
1 55 4
1 56 3
1 58 7
1 61 3
1 62 2
1 64 3
1 66 6
1 68 7
1 71 10
1 72 4
1 73 6
1 74 10
1 75 3
1 76 4
1 78 3
1 79 10
1 81 5
1 83 4
1 86 1
1 88 8
1 90 8
1 91 5
1 92 1
1 93 7
1 94 4
1 95 8
1 96 2
1 97 3
1 98 3
1 99 5
1 100 10
1 101 10
1 102 6
1 103 3
1 105 2
1 106 6
1 107 3
1 108 10
1 109 9
1 110 4
1 115 2
1 116 6
1 118 5
1 119 6
1 121 5
1 122 10
1 123 9
1 124 9
1 125 2
1 126 4
1 130 5
1 131 7
1 132 5
1 133 4
1 136 9
1 137 3
1 138 5
1 141 7
1 142 5
1 143 3
1 146 9
1 147 8
1 148 5
1 149 2
1 150 5
1 151 4
1 152 5
1 153 7
1 154 3
1 155 8
1 156 4
1 157 9
1 158 8
1 159 8
1 161 10
1 163 3
1 164 8
1 166 5
1 167 9
1 168 3
1 169 1
1 171 7
1 172 9
1 174 2
1 175 2
1 176 6
1 177 9
1 179 9
1 181 2
1 182 1
1 183 3
1 184 8
1 185 6
1 186 10
1 187 3
1 189 5
1 190 1
1 192 2
1 193 1
1 194 10
1 196 1
1 197 7
1 199 3
2 3 3
2 4 4
2 5 5
2 8 8
2 9 2
2 12 4
2 14 5
2 15 3
2 16 6
2 19 1
2 21 4
2 22 7
2 23 2
2 24 7
2 25 6
2 27 9
2 28 6
2 30 4
2 31 3
2 32 10
2 33 1
2 34 4
2 35 7
2 36 4
2 38 4
2 39 9
2 40 2
2 41 7
2 42 6
2 44 3
2 46 3
2 47 2
2 48 3
2 50 1
2 51 2
2 52 6
2 53 5
2 54 7
2 55 1
2 56 3
2 57 9
2 61 2
2 62 3
2 64 9
2 65 4
2 66 8
2 67 9
2 69 6
2 70 6
2 71 4
2 73 6
2 74 5
2 76 8
2 78 8
2 82 10
2 85 7
2 86 6
2 87 1
2 88 10
2 89 1
2 91 9
2 92 5
2 93 5
2 94 5
2 96 9
2 97 10
2 98 2
2 100 4
2 102 10
2 103 3
2 104 2
2 105 5
2 106 2
2 108 9
2 109 7
2 110 6
2 111 8
2 112 2
2 114 4
2 115 5
2 116 9
2 117 5
2 119 7
2 121 7
2 123 7
2 124 5
2 125 3
2 126 1
2 127 4
2 130 5
2 132 2
2 133 9
2 134 1
2 135 2
2 136 6
2 137 5
2 138 9
2 139 8
2 141 5
2 142 6
2 145 2
2 146 10
2 148 5
2 149 6
2 151 7
2 154 7
2 155 7
2 156 10
2 157 10
2 158 2
2 159 10
2 160 2
2 161 2
2 163 3
2 164 7
2 165 8
2 166 2
2 170 1
2 171 10
2 172 3
2 173 5
2 174 6
2 175 8
2 177 6
2 178 7
2 179 10
2 180 3
2 183 7
2 185 9
2 186 2
2 187 9
2 188 1
2 190 1
2 191 1
2 192 7
2 193 4
2 196 4
2 197 6
2 198 3
2 199 4
2 200 5
3 4 7
3 5 9
3 6 9
3 7 8
3 8 2
3 9 4
3 11 10
3 12 1
3 14 7
3 15 3
3 17 1
3 18 8
3 19 2
3 21 9
3 23 2
3 26 1
3 27 8
3 28 9
3 31 1
3 32 5
3 34 4
3 35 10
3 37 5
3 38 7
3 40 5
3 41 5
3 42 6
3 44 9
3 47 10
3 48 4
3 50 7
3 51 3
3 52 9
3 54 1
3 56 3
3 57 2
3 58 7
3 59 1
3 61 9
3 62 7
3 63 4
3 64 3
3 65 2
3 67 8
3 68 6
3 69 10
3 70 5
3 71 8
3 73 7
3 75 6
3 76 5
3 78 6
3 79 1
3 80 9
3 81 9
3 82 8
3 83 8
3 84 2
3 85 1
3 86 2
3 87 8
3 88 2
3 89 3
3 91 3
3 92 2
3 93 5
3 94 1
3 95 9
3 96 7
3 98 9
3 99 9
3 100 10
3 101 4
3 102 7
3 103 8
3 104 6
3 106 6
3 107 7
3 108 4
3 110 5
3 111 3
3 112 4
3 113 9
3 114 10
3 115 3
3 116 10
3 117 3
3 119 9
3 120 7
3 121 1
3 122 1
3 123 8
3 124 6
3 125 8
3 127 1
3 129 9
3 130 5
3 132 8
3 133 2
3 135 3
3 136 1
3 137 2
3 139 9
3 140 5
3 141 1
3 142 3
3 143 9
3 144 5
3 146 3
3 147 5
3 150 7
3 151 8
3 152 9
3 153 1
3 154 2
3 155 10
3 156 10
3 157 4
3 158 9
3 159 2
3 160 10
3 161 10
3 162 10
3 163 7
3 164 6
3 165 3
3 166 5
3 167 8
3 170 7
3 171 5
3 172 2
3 173 5
3 176 1
3 177 8
3 178 7
3 179 4
3 181 3
3 184 3
3 185 2
3 186 1
3 188 9
3 189 10
3 190 9
3 191 9
3 192 2
3 193 5
3 197 5
3 198 1
3 199 4
4 5 9
4 6 1
4 7 3
4 8 8
4 9 8
4 10 10
4 11 4
4 12 10
4 13 3
4 14 1
4 17 5
4 18 2
4 20 1
4 21 1
4 22 8
4 23 3
4 25 6
4 28 1
4 29 7
4 30 7
4 32 8
4 33 3
4 34 1
4 36 10
4 37 2
4 38 4
4 39 1
4 40 7
4 42 2
4 44 1
4 45 9
4 46 3
4 48 9
4 49 7
4 50 7
4 52 2
4 53 4
4 54 8
4 56 3
4 57 9
4 58 8
4 59 5
4 62 2
4 65 2
4 66 3
4 67 6
4 68 4
4 69 6
4 73 10
4 75 4
4 78 7
4 81 6
4 83 1
4 84 4
4 85 7
4 87 7
4 88 7
4 90 9
4 91 4
4 93 5
4 95 8
4 96 4
4 98 2
4 99 7
4 100 8
4 101 4
4 102 10
4 103 7
4 104 5
4 105 1
4 106 10
4 107 10
4 109 5
4 110 9
4 112 6
4 113 3
4 114 1
4 115 1
4 117 8
4 119 1
4 121 6
4 123 8
4 124 7
4 125 3
4 126 4
4 127 6
4 128 8
4 129 9
4 130 10
4 132 1
4 134 8
4 135 9
4 136 3
4 137 1
4 138 6
4 139 9
4 141 3
4 144 6
4 146 2
4 147 8
4 148 7
4 149 3
4 150 5
4 151 10
4 152 10
4 154 6
4 155 2
4 156 5
4 157 7
4 159 2
4 160 5
4 162 9
4 163 4
4 165 2
4 166 1
4 168 7
4 169 4
4 170 6
4 171 7
4 172 3
4 175 3
4 176 9
4 177 10
4 178 7
4 179 2
4 180 7
4 181 9
4 182 9
4 183 8
4 187 8
4 188 5
4 190 2
4 191 9
4 193 1
4 195 2
4 196 9
4 197 8
4 198 6
4 199 3
5 6 1
5 10 4
5 11 9
5 12 5
5 14 10
5 15 7
5 16 6
5 17 9
5 18 2
5 19 8
5 20 4
5 21 8
5 23 8
5 24 1
5 25 8
5 26 9
5 29 3
5 31 8
5 32 2
5 33 8
5 36 2
5 37 3
5 40 7
5 44 5
5 45 2
5 47 6
5 48 3
5 49 6
5 50 7
5 51 7
5 52 9
5 54 3
5 55 6
5 56 8
5 58 1
5 62 6
5 63 5
5 64 9
5 65 9
5 66 8
5 68 6
5 71 9
5 72 5
5 73 1
5 76 2
5 77 6
5 78 2
5 79 1
5 80 7
5 82 6
5 83 4
5 84 7
5 85 2
5 86 3
5 87 10
5 89 2
5 90 6
5 91 8
5 92 10
5 93 10
5 94 1
5 96 4
5 97 9
5 98 9
5 99 3
5 102 3
5 104 4
5 105 4
5 106 9
5 107 2
5 108 4
5 109 9
5 110 8
5 113 7
5 115 6
5 118 7
5 120 6
5 123 5
5 124 1
5 125 1
5 127 6
5 128 7
5 129 4
5 132 1
5 133 10
5 134 8
5 135 9
5 136 2
5 137 10
5 139 5
5 140 10
5 142 1
5 143 1
5 144 7
5 145 10
5 146 4
5 147 3
5 148 9
5 149 3
5 150 2
5 151 8
5 152 9
5 153 6
5 154 7
5 157 6
5 160 4
5 161 2
5 162 2
5 163 9
5 164 10
5 166 2
5 167 7
5 168 9
5 169 9
5 170 3
5 171 7
5 172 3
5 173 7
5 174 3
5 175 3
5 176 4
5 177 9
5 178 3
5 179 1
5 180 8
5 181 3
5 182 2
5 183 2
5 184 9
5 185 1
5 186 7
5 189 4
5 190 4
5 191 6
5 193 4
5 194 9
5 199 5
5 200 6
6 7 6
6 8 5
6 10 5
6 11 5
6 12 10
6 13 3
6 15 2
6 17 7
6 19 8
6 26 6
6 27 9
6 28 2
6 29 9
6 30 10
6 31 1
6 32 8
6 33 9
6 34 5
6 36 10
6 38 9
6 41 8
6 42 6
6 44 4
6 45 9
6 46 6
6 47 8
6 48 3
6 50 2
6 53 7
6 54 8
6 55 9
6 56 2
6 57 6
6 59 2
6 60 5
6 62 2
6 63 4
6 64 9
6 66 6
6 67 1
6 69 3
6 71 1
6 73 9
6 75 2
6 79 7
6 82 3
6 83 2
6 85 5
6 87 6
6 89 10
6 90 7
6 91 3
6 92 7
6 94 2
6 95 1
6 96 7
6 97 5
6 98 6
6 99 2
6 100 4
6 101 4
6 103 4
6 104 2
6 105 1
6 106 5
6 108 4
6 109 6
6 110 3
6 111 2
6 112 3
6 113 6
6 115 6
6 117 3
6 118 1
6 119 5
6 121 8
6 122 4
6 126 3
6 127 3
6 128 1
6 129 4
6 130 2
6 131 1
6 133 1
6 134 4
6 136 6
6 138 6
6 139 6
6 140 5
6 141 9
6 142 10
6 143 10
6 144 9
6 146 1
6 150 4
6 151 6
6 153 6
6 155 8
6 157 2
6 158 2
6 160 2
6 161 4
6 162 5
6 163 6
6 164 2
6 165 10
6 166 3
6 167 6
6 168 5
6 169 3
6 170 10
6 172 4
6 173 2
6 175 6
6 176 2
6 177 9
6 178 3
6 179 9
6 180 6
6 181 2
6 183 7
6 184 8
6 186 1
6 189 3
6 190 2
6 191 6
6 192 7
6 193 9
6 194 4
6 196 5
6 197 6
6 199 4
6 200 6
7 14 7
7 15 7
7 17 5
7 18 7
7 23 3
7 24 10
7 25 1
7 26 8
7 27 1
7 30 9
7 34 10
7 35 6
7 36 8
7 39 4
7 40 5
7 41 1
7 42 7
7 43 2
7 44 5
7 48 4
7 49 8
7 50 7
7 51 5
7 52 7
7 53 9
7 54 2
7 55 9
7 57 2
7 58 8
7 60 7
7 61 7
7 62 9
7 63 8
7 64 10
7 66 9
7 67 9
7 68 7
7 73 8
7 76 7
7 77 10
7 79 5
7 80 5
7 81 10
7 82 3
7 83 1
7 85 9
7 86 4
7 87 3
7 90 7
7 91 7
7 92 6
7 94 3
7 95 4
7 96 9
7 98 1
7 100 7
7 101 5
7 103 4
7 104 3
7 105 4
7 106 10
7 108 7
7 109 3
7 110 6
7 111 1
7 112 6
7 113 6
7 114 6
7 115 5
7 116 2
7 118 8
7 119 7
7 120 10
7 122 8
7 123 1
7 125 10
7 126 9
7 127 6
7 128 5
7 129 8
7 130 2
7 131 5
7 134 9
7 135 6
7 136 2
7 137 9
7 138 8
7 139 7
7 142 9
7 143 8
7 144 5
7 145 8
7 146 7
7 148 9
7 150 2
7 151 9
7 152 7
7 154 9
7 155 7
7 156 6
7 159 1
7 160 5
7 161 6
7 164 5
7 165 3
7 166 2
7 168 4
7 169 9
7 170 7
7 171 1
7 172 4
7 173 10
7 174 3
7 176 8
7 177 10
7 179 9
7 180 10
7 181 7
7 182 3
7 183 5
7 184 5
7 185 3
7 186 2
7 188 1
7 189 5
7 191 2
7 193 4
7 195 7
7 196 5
7 197 7
7 198 8
8 9 10
8 10 3
8 11 5
8 12 10
8 13 4
8 14 8
8 15 7
8 16 8
8 17 10
8 19 8
8 20 10
8 24 10
8 28 1
8 30 8
8 31 4
8 32 5
8 33 8
8 37 9
8 38 2
8 40 4
8 42 8
8 44 9
8 45 9
8 46 7
8 47 9
8 48 2
8 49 2
8 51 4
8 53 6
8 54 9
8 55 6
8 57 3
8 58 10
8 60 3
8 61 1
8 63 9
8 64 8
8 66 2
8 67 10
8 69 3
8 70 4
8 71 1
8 72 10
8 73 6
8 75 9
8 77 9
8 80 4
8 81 6
8 83 1
8 84 8
8 86 9
8 88 7
8 89 7
8 91 7
8 92 6
8 93 9
8 94 5
8 96 4
8 97 3
8 98 3
8 99 9
8 100 9
8 101 5
8 103 2
8 104 9
8 105 9
8 107 4
8 109 10
8 111 4
8 112 9
8 113 3
8 114 8
8 115 2
8 116 10
8 118 7
8 119 3
8 120 8
8 122 6
8 123 1
8 124 2
8 125 5
8 127 8
8 130 9
8 131 3
8 132 3
8 134 3
8 135 8
8 137 2
8 138 2
8 139 3
8 140 4
8 141 10
8 142 7
8 143 9
8 144 10
8 145 7
8 148 6
8 149 3
8 152 9
8 153 3
8 154 6
8 155 6
8 156 8
8 158 2
8 159 7
8 160 5
8 161 1
8 162 7
8 163 6
8 165 4
8 166 10
8 168 2
8 169 3
8 170 10
8 172 10
8 173 5
8 174 10
8 179 3
8 181 2
8 182 9
8 185 3
8 187 10
8 188 7
8 189 3
8 190 6
8 191 6
8 193 1
8 194 9
8 195 5
8 197 8
8 198 3
8 200 1
9 10 1
9 11 6
9 12 2
9 13 2
9 15 10
9 16 9
9 18 7
9 19 2
9 20 8
9 22 7
9 23 1
9 24 5
9 25 10
9 26 4
9 27 6
9 28 7
9 29 8
9 30 2
9 32 1
9 34 8
9 35 7
9 36 3
9 38 8
9 39 3
9 42 7
9 43 5
9 44 6
9 45 10
9 47 9
9 48 10
9 49 9
9 50 8
9 51 3
9 54 9
9 55 3
9 56 4
9 57 2
9 59 3
9 60 5
9 61 8
9 62 2
9 63 7
9 64 1
9 65 8
9 66 1
9 69 8
9 70 6
9 71 4
9 73 4
9 74 4
9 75 10
9 77 6
9 78 8
9 79 5
9 81 5
9 82 3
9 83 4
9 86 5
9 88 2
9 89 6
9 90 6
9 92 8
9 94 7
9 95 10
9 96 7
9 97 3
9 98 3
9 99 9
9 100 10
9 101 9
9 102 10
9 103 9
9 104 5
9 106 1
9 107 10
9 108 8
9 109 8
9 110 8
9 111 10
9 112 7
9 113 8
9 114 1
9 115 2
9 116 6
9 117 8
9 118 5
9 119 5
9 120 4
9 121 9
9 122 9
9 123 9
9 124 10
9 125 8
9 126 7
9 127 6
9 128 7
9 129 3
9 130 10
9 131 4
9 134 5
9 135 1
9 139 10
9 141 3
9 142 10
9 145 4
9 146 4
9 150 2
9 152 1
9 153 1
9 154 1
9 155 9
9 156 1
9 157 8
9 159 8
9 161 7
9 162 8
9 163 9
9 164 2
9 165 5
9 167 8
9 170 6
9 171 7
9 172 2
9 173 1
9 174 3
9 175 5
9 176 9
9 178 6
9 179 10
9 181 1
9 182 6
9 184 8
9 185 5
9 186 2
9 187 3
9 188 10
9 189 4
9 190 8
9 191 5
9 193 6
9 194 2
9 195 3
9 196 9
9 197 2
9 198 2
9 199 6
10 13 4
10 14 4
10 15 7
10 16 3
10 19 3
10 20 3
10 21 9
10 22 1
10 23 5
10 24 2
10 25 8
10 27 1
10 29 4
10 30 9
10 31 4
10 32 4
10 34 6
10 35 3
10 37 2
10 39 2
10 40 3
10 41 6
10 42 7
10 43 10
10 44 7
10 45 2
10 47 4
10 48 9
10 49 5
10 51 3
10 53 3
10 54 8
10 55 9
10 57 9
10 59 5
10 60 9
10 62 4
10 63 1
10 64 10
10 66 10
10 67 2
10 69 8
10 71 9
10 73 10
10 74 8
10 75 10
10 76 3
10 77 9
10 79 8
10 80 6
10 81 8
10 83 2
10 84 4
10 85 5
10 86 10
10 87 6
10 88 5
10 89 5
10 90 7
10 91 7
10 92 9
10 93 9
10 94 9
10 95 6
10 96 5
10 97 9
10 98 5
10 100 8
10 101 9
10 102 8
10 105 8
10 106 10
10 107 1
10 108 2
10 109 9
10 111 5
10 112 5
10 113 2
10 115 8
10 117 5
10 118 6
10 119 2
10 120 5
10 121 2
10 123 9
10 124 8
10 125 1
10 126 9
10 127 7
10 128 5
10 129 6
10 131 9
10 132 5
10 133 6
10 136 1
10 137 8
10 138 7
10 139 7
10 140 5
10 141 5
10 143 7
10 145 5
10 146 7
10 147 3
10 148 9
10 149 1
10 150 9
10 151 4
10 152 6
10 153 7
10 154 1
10 155 8
10 162 10
10 163 4
10 165 2
10 168 3
10 169 5
10 171 8
10 172 4
10 174 1
10 175 2
10 176 10
10 178 7
10 179 10
10 181 4
10 182 7
10 183 5
10 184 2
10 185 2
10 187 4
10 192 4
10 195 2
10 196 10
10 197 3
10 199 8
10 200 10
11 13 9
11 15 5
11 16 1
11 17 8
11 18 10
11 19 6
11 21 6
11 22 10
11 24 6
11 25 7
11 27 5
11 28 4
11 29 3
11 35 1
11 38 5
11 39 9
11 40 10
11 41 5
11 43 8
11 44 10
11 45 3
11 47 5
11 48 9
11 49 10
11 50 4
11 51 9
11 52 3
11 53 7
11 54 8
11 57 6
11 59 7
11 60 1
11 61 3
11 62 7
11 64 2
11 65 1
11 66 7
11 67 5
11 68 8
11 74 6
11 77 8
11 78 4
11 80 3
11 81 4
11 82 3
11 85 4
11 86 1
11 87 4
11 88 3
11 90 1
11 92 7
11 93 2
11 95 5
11 96 1
11 97 2
11 98 3
11 100 3
11 101 4
11 102 5
11 105 2
11 106 3
11 107 7
11 108 6
11 110 10
11 111 5
11 112 10
11 113 10
11 114 8
11 115 4
11 116 3
11 119 10
11 120 6
11 121 8
11 123 4
11 125 5
11 127 8
11 130 2
11 131 8
11 132 10
11 133 9
11 134 4
11 135 1
11 136 6
11 137 7
11 138 9
11 141 3
11 143 8
11 144 8
11 145 2
11 146 8
11 148 1
11 150 3
11 151 5
11 153 5
11 154 8
11 155 8
11 156 1
11 157 1
11 159 10
11 160 9
11 163 2
11 164 8
11 165 9
11 167 2
11 169 7
11 170 4
11 171 2
11 173 5
11 174 5
11 175 2
11 177 10
11 179 9
11 181 10
11 184 5
11 186 1
11 187 6
11 189 5
11 190 4
11 193 9
11 194 1
11 195 7
11 196 3
11 197 6
11 198 1
11 200 8
12 13 5
12 15 6
12 17 3
12 18 5
12 20 10
12 22 4
12 23 4
12 24 6
12 25 4
12 26 6
12 28 5
12 29 1
12 30 9
12 32 1
12 35 8
12 36 5
12 37 9
12 38 7
12 40 4
12 41 3
12 43 1
12 44 5
12 46 6
12 47 10
12 48 6
12 49 7
12 50 1
12 51 4
12 53 3
12 55 3
12 58 2
12 59 10
12 62 2
12 65 5
12 66 4
12 67 5
12 68 6
12 69 8
12 70 10
12 73 8
12 74 5
12 75 7
12 76 8
12 77 1
12 80 6
12 81 1
12 82 4
12 83 5
12 84 3
12 86 2
12 88 1
12 90 9
12 91 4
12 94 10
12 95 6
12 96 8
12 97 6
12 98 1
12 100 8
12 101 1
12 103 7
12 104 6
12 105 6
12 108 8
12 110 1
12 111 1
12 112 10
12 113 9
12 116 4
12 117 7
12 118 4
12 119 7
12 121 7
12 122 10
12 123 10
12 124 7
12 130 1
12 131 4
12 132 10
12 133 2
12 134 1
12 135 8
12 136 9
12 137 5
12 138 3
12 139 5
12 140 5
12 141 5
12 142 6
12 143 9
12 145 2
12 146 3
12 148 1
12 149 7
12 151 8
12 152 1
12 154 4
12 157 6
12 158 1
12 159 4
12 160 3
12 162 1
12 163 7
12 164 7
12 166 2
12 167 6
12 168 7
12 169 1
12 170 1
12 172 8
12 174 3
12 175 2
12 176 4
12 177 4
12 178 9
12 180 7
12 181 7
12 182 2
12 183 9
12 184 5
12 185 5
12 186 9
12 189 10
12 190 8
12 191 2
12 193 8
12 195 9
12 196 1
12 197 9
12 198 1
12 199 7
12 200 7
13 14 2
13 15 1
13 17 4
13 20 9
13 21 2
13 22 4
13 24 6
13 26 1
13 28 6
13 29 3
13 31 8
13 32 6
13 34 6
13 35 8
13 36 10
13 38 8
13 39 10
13 40 1
13 42 5
13 43 5
13 46 5
13 49 1
13 50 10
13 53 1
13 54 3
13 55 3
13 59 7
13 60 1
13 61 10
13 62 7
13 65 3
13 66 1
13 67 8
13 68 9
13 69 9
13 72 10
13 73 4
13 75 2
13 76 8
13 77 10
13 79 5
13 80 9
13 83 10
13 84 7
13 86 4
13 87 8
13 88 1
13 89 10
13 90 2
13 93 10
13 95 10
13 97 1
13 98 10
13 99 3
13 102 2
13 105 4
13 106 8
13 109 8
13 117 4
13 119 1
13 120 8
13 121 10
13 122 1
13 123 2
13 124 1
13 125 3
13 126 9
13 127 4
13 129 7
13 130 7
13 132 7
13 133 6
13 134 2
13 135 2
13 136 3
13 137 3
13 138 10
13 146 4
13 148 5
13 149 9
13 151 5
13 153 10
13 154 1
13 155 3
13 156 7
13 157 9
13 158 6
13 160 2
13 161 7
13 162 3
13 163 3
13 164 7
13 167 10
13 170 7
13 171 10
13 172 1
13 174 6
13 175 8
13 177 9
13 178 7
13 179 3
13 181 8
13 183 5
13 184 1
13 185 7
13 186 7
13 187 6
13 189 4
13 190 10
13 191 10
13 193 9
13 194 10
13 195 10
13 196 6
13 197 1
13 198 8
14 15 8
14 20 2
14 21 9
14 22 4
14 23 2
14 24 8
14 27 2
14 28 7
14 29 9
14 31 7
14 32 7
14 33 6
14 34 9
14 35 2
14 36 7
14 37 8
14 39 6
14 40 5
14 41 2
14 42 1
14 43 4
14 44 2
14 45 10
14 47 10
14 48 9
14 50 8
14 51 2
14 52 9
14 53 5
14 54 10
14 55 3
14 56 4
14 58 1
14 60 6
14 61 2
14 62 7
14 63 8
14 64 5
14 65 7
14 66 6
14 67 6
14 68 1
14 69 6
14 70 4
14 71 7
14 72 2
14 73 5
14 74 7
14 75 7
14 76 10
14 78 2
14 79 9
14 80 5
14 82 6
14 84 8
14 86 7
14 87 6
14 88 9
14 89 7
14 90 1
14 91 7
14 92 7
14 94 1
14 95 4
14 96 9
14 97 4
14 98 4
14 99 6
14 100 1
14 101 7
14 102 9
14 105 1
14 107 6
14 111 6
14 112 9
14 116 10
14 117 1
14 118 2
14 119 10
14 121 8
14 123 6
14 124 6
14 126 9
14 127 6
14 130 3
14 132 9
14 133 9
14 135 3
14 136 1
14 137 2
14 138 8
14 139 4
14 140 7
14 141 1
14 142 9
14 143 1
14 144 4
14 145 3
14 146 9
14 147 4
14 148 6
14 149 2
14 151 6
14 152 6
14 154 2
14 156 9
14 159 2
14 160 1
14 161 6
14 162 10
14 164 9
14 166 5
14 169 5
14 170 3
14 172 5
14 173 4
14 175 3
14 176 5
14 179 3
14 182 10
14 183 4
14 185 1
14 186 6
14 187 10
14 188 2
14 189 4
14 190 10
14 191 6
14 194 8
14 195 3
14 196 7
14 197 1
14 198 3
14 199 7
14 200 6
15 16 10
15 19 7
15 20 9
15 21 9
15 22 1
15 25 7
15 26 4
15 27 7
15 29 2
15 32 7
15 33 9
15 34 4
15 35 8
15 36 10
15 38 4
15 39 1
15 40 7
15 42 7
15 45 5
15 46 8
15 47 5
15 48 2
15 50 2
15 51 7
15 52 2
15 53 5
15 55 10
15 56 5
15 57 6
15 58 8
15 60 6
15 61 3
15 62 5
15 63 7
15 64 8
15 65 2
15 68 2
15 69 9
15 70 9
15 71 3
15 72 5
15 75 7
15 76 9
15 77 6
15 78 1
15 79 7
15 80 4
15 82 5
15 83 7
15 84 1
15 85 8
15 87 3
15 89 5
15 90 10
15 91 8
15 92 2
15 93 8
15 94 7
15 95 3
15 96 10
15 97 2
15 98 8
15 100 9
15 101 10
15 103 7
15 106 3
15 107 8
15 109 1
15 110 1
15 113 3
15 114 4
15 115 4
15 117 3
15 119 2
15 120 5
15 121 2
15 122 10
15 123 7
15 124 2
15 125 4
15 126 3
15 128 5
15 129 10
15 130 1
15 132 10
15 133 7
15 134 5
15 135 3
15 136 3
15 138 6
15 139 9
15 140 3
15 141 6
15 144 10
15 145 9
15 146 2
15 147 5
15 148 10
15 151 8
15 152 1
15 153 4
15 154 4
15 155 2
15 156 2
15 160 2
15 162 4
15 163 7
15 165 10
15 166 3
15 168 3
15 169 4
15 171 1
15 172 4
15 174 10
15 175 4
15 176 6
15 178 2
15 180 10
15 181 7
15 182 5
15 183 1
15 184 3
15 187 6
15 188 2
15 189 2
15 190 7
15 191 10
15 192 4
15 193 9
15 194 1
15 196 7
15 197 3
15 198 4
15 199 8
16 19 2
16 20 2
16 22 5
16 23 7
16 24 10
16 25 8
16 27 4
16 29 9
16 32 8
16 33 2
16 34 8
16 35 1
16 36 5
16 37 4
16 39 8
16 40 6
16 41 2
16 42 1
16 43 5
16 44 3
16 46 4
16 47 10
16 50 1
16 51 1
16 52 10
16 53 6
16 54 8
16 56 3
16 57 3
16 58 5
16 61 1
16 63 5
16 65 8
16 66 5
16 68 1
16 69 10
16 70 3
16 71 9
16 72 4
16 73 8
16 74 2
16 76 3
16 77 5
16 78 9
16 80 10
16 82 10
16 83 8
16 84 10
16 86 10
16 88 2
16 89 8
16 90 7
16 91 3
16 92 7
16 95 6
16 96 9
16 97 7
16 98 6
16 99 1
16 100 6
16 104 5
16 105 3
16 106 4
16 107 2
16 108 7
16 109 5
16 110 3
16 112 10
16 114 10
16 115 6
16 116 4
16 117 10
16 118 9
16 119 8
16 120 1
16 121 4
16 122 6
16 124 4
16 126 2
16 128 9
16 129 2
16 130 9
16 133 9
16 134 8
16 135 5
16 136 1
16 137 5
16 139 2
16 140 4
16 141 7
16 142 7
16 143 10
16 144 5
16 145 2
16 146 4
16 149 7
16 150 9
16 151 7
16 152 5
16 153 9
16 154 7
16 157 3
16 159 8
16 161 2
16 163 4
16 164 5
16 166 5
16 167 6
16 169 10
16 170 10
16 171 7
16 174 2
16 175 9
16 176 9
16 178 3
16 181 3
16 182 7
16 183 6
16 184 3
16 189 1
16 190 8
16 191 2
16 193 5
16 195 1
16 196 2
16 197 1
16 198 3
16 199 9
16 200 10
17 18 3
17 19 4
17 20 3
17 23 10
17 24 2
17 25 1
17 27 7
17 28 5
17 30 5
17 31 8
17 32 5
17 35 6
17 36 7
17 37 1
17 38 10
17 39 9
17 40 10
17 41 1
17 46 10
17 47 10
17 50 1
17 52 2
17 54 6
17 55 10
17 56 2
17 58 6
17 59 6
17 60 6
17 61 4
17 63 6
17 65 4
17 66 2
17 67 3
17 68 9
17 69 6
17 71 6
17 73 8
17 74 1
17 75 7
17 76 10
17 77 10
17 78 10
17 79 4
17 80 6
17 81 2
17 82 1
17 83 5
17 85 1
17 86 10
17 87 2
17 88 5
17 89 8
17 90 6
17 91 7
17 92 5
17 93 8
17 94 5
17 95 9
17 96 4
17 98 8
17 99 10
17 100 10
17 105 6
17 107 9
17 110 4
17 111 10
17 112 5
17 113 10
17 114 6
17 115 1
17 116 1
17 117 9
17 118 4
17 120 10
17 121 4
17 123 4
17 124 10
17 127 7
17 128 3
17 129 9
17 130 7
17 131 4
17 132 5
17 135 2
17 136 6
17 137 5
17 138 1
17 139 7
17 141 1
17 142 7
17 143 2
17 145 2
17 146 5
17 147 1
17 148 8
17 149 5
17 150 9
17 153 7
17 155 6
17 156 9
17 157 4
17 158 4
17 160 1
17 161 4
17 162 2
17 163 7
17 164 4
17 165 9
17 166 1
17 167 10
17 168 4
17 169 2
17 170 8
17 171 8
17 172 9
17 173 4
17 175 7
17 178 8
17 179 6
17 182 10
17 183 1
17 185 7
17 186 6
17 187 1
17 188 5
17 189 4
17 191 9
17 194 9
17 198 4
17 200 10
18 19 5
18 20 5
18 21 3
18 22 10
18 23 6
18 24 10
18 25 4
18 26 1
18 27 6
18 28 9
18 29 6
18 31 10
18 32 1
18 33 4
18 34 3
18 35 1
18 36 10
18 37 3
18 39 10
18 41 9
18 43 3
18 45 9
18 46 3
18 47 4
18 48 4
18 49 6
18 50 4
18 53 4
18 55 10
18 56 7
18 58 5
18 61 2
18 62 3
18 63 2
18 64 8
18 65 4
18 66 7
18 67 7
18 68 9
18 70 2
18 73 6
18 74 2
18 75 4
18 76 10
18 79 10
18 80 2
18 81 2
18 83 3
18 84 10
18 85 7
18 87 8
18 88 3
18 90 7
18 92 10
18 93 10
18 95 8
18 97 7
18 98 7
18 99 2
18 100 5
18 101 9
18 102 8
18 104 1
18 105 2
18 107 2
18 108 7
18 109 7
18 110 5
18 113 7
18 114 2
18 115 3
18 116 4
18 118 7
18 120 7
18 121 6
18 122 4
18 123 2
18 124 10
18 125 2
18 126 3
18 127 2
18 130 3
18 131 8
18 132 5
18 134 3
18 136 6
18 137 3
18 140 1
18 141 5
18 142 4
18 143 9
18 144 1
18 145 5
18 146 7
18 148 2
18 149 6
18 150 7
18 151 8
18 152 3
18 154 4
18 155 7
18 156 10
18 157 1
18 158 9
18 159 4
18 160 6
18 161 4
18 162 10
18 163 8
18 164 5
18 165 3
18 166 6
18 167 6
18 168 1
18 169 3
18 170 6
18 171 9
18 172 9
18 173 9
18 174 7
18 175 8
18 176 4
18 178 9
18 179 8
18 183 9
18 184 7
18 185 2
18 186 7
18 187 10
18 188 1
18 189 10
18 190 6
18 191 4
18 192 3
18 193 7
18 195 9
18 196 6
18 198 3
18 199 1
18 200 3
19 22 7
19 23 4
19 24 2
19 25 7
19 26 4
19 29 7
19 30 4
19 32 3
19 33 5
19 34 6
19 35 9
19 37 4
19 39 5
19 41 2
19 45 7
19 46 3
19 48 8
19 50 9
19 51 3
19 54 2
19 56 5
19 57 10
19 58 8
19 60 6
19 61 9
19 62 3
19 63 5
19 65 10
19 66 9
19 67 2
19 68 10
19 72 5
19 74 4
19 75 8
19 76 10
19 77 8
19 78 7
19 81 6
19 82 6
19 83 4
19 85 2
19 86 9
19 89 6
19 90 7
19 91 10
19 92 3
19 93 10
19 94 6
19 95 9
19 96 7
19 97 5
19 101 8
19 102 1
19 104 9
19 105 8
19 106 6
19 107 7
19 108 4
19 109 1
19 110 9
19 112 7
19 114 5
19 115 9
19 116 9
19 117 8
19 118 10
19 119 4
19 120 8
19 123 1
19 126 4
19 128 10
19 129 6
19 130 7
19 131 4
19 132 6
19 134 10
19 135 5
19 136 8
19 137 3
19 140 3
19 141 3
19 142 1
19 143 3
19 145 8
19 146 1
19 148 2
19 149 4
19 150 9
19 152 8
19 153 5
19 155 2
19 156 1
19 157 4
19 158 7
19 159 5
19 160 9
19 161 10
19 162 7
19 163 10
19 164 4
19 165 7
19 166 5
19 169 10
19 170 10
19 171 3
19 172 2
19 173 9
19 174 1
19 177 10
19 181 5
19 182 10
19 183 9
19 184 6
19 185 1
19 186 1
19 187 2
19 189 8
19 191 5
19 195 8
19 196 1
19 197 1
19 199 5
20 23 4
20 27 8
20 28 2
20 29 6
20 30 6
20 31 4
20 33 10
20 34 9
20 35 9
20 36 5
20 38 2
20 39 8
20 41 2
20 44 2
20 45 4
20 46 5
20 47 6
20 48 2
20 49 5
20 50 8
20 52 5
20 54 8
20 55 6
20 59 5
20 60 3
20 62 6
20 63 7
20 64 1
20 65 7
20 67 7
20 69 10
20 71 2
20 72 1
20 74 10
20 75 4
20 78 5
20 80 7
20 81 4
20 82 10
20 83 4
20 84 7
20 85 3
20 86 8
20 87 6
20 89 2
20 90 8
20 91 7
20 92 5
20 93 1
20 94 1
20 95 9
20 96 1
20 97 2
20 100 4
20 101 6
20 102 8
20 103 4
20 104 2
20 105 3
20 106 6
20 107 1
20 108 5
20 109 9
20 110 2
20 111 10
20 112 8
20 113 10
20 117 7
20 118 9
20 119 8
20 120 10
20 121 4
20 124 5
20 126 2
20 128 7
20 129 3
20 131 9
20 132 9
20 133 7
20 136 8
20 137 7
20 138 1
20 143 7
20 144 1
20 145 6
20 146 10
20 148 10
20 149 9
20 150 5
20 151 3
20 152 7
20 154 4
20 155 8
20 156 8
20 157 8
20 158 3
20 159 4
20 160 7
20 161 10
20 162 2
20 163 3
20 164 8
20 165 1
20 166 2
20 168 7
20 169 6
20 170 7
20 171 5
20 172 6
20 174 4
20 176 5
20 178 4
20 179 9
20 181 6
20 182 7
20 184 2
20 185 4
20 186 4
20 187 10
20 188 3
20 189 6
20 190 4
20 191 7
20 192 8
20 194 9
20 195 2
20 196 3
20 197 10
20 198 3
20 199 4
20 200 4
21 22 6
21 24 2
21 25 3
21 26 1
21 27 2
21 30 3
21 31 5
21 32 2
21 33 2
21 34 4
21 35 7
21 36 1
21 37 7
21 39 3
21 40 6
21 43 6
21 45 8
21 46 3
21 47 1
21 48 5
21 50 1
21 51 1
21 52 1
21 54 2
21 55 7
21 58 4
21 59 1
21 60 8
21 61 5
21 63 1
21 66 6
21 68 9
21 69 2
21 70 5
21 71 3
21 72 2
21 74 8
21 77 2
21 78 3
21 79 3
21 80 2
21 82 4
21 83 8
21 85 2
21 86 9
21 89 3
21 90 2
21 91 5
21 92 7
21 93 5
21 94 5
21 95 5
21 96 2
21 97 5
21 98 10
21 99 4
21 100 6
21 101 4
21 102 8
21 103 2
21 104 10
21 105 6
21 107 7
21 108 4
21 109 7
21 110 10
21 112 10
21 113 6
21 114 6
21 116 1
21 117 6
21 118 1
21 119 2
21 120 6
21 121 1
21 122 1
21 123 5
21 127 9
21 128 1
21 131 8
21 132 7
21 133 9
21 134 2
21 136 2
21 137 10
21 138 4
21 139 1
21 140 6
21 141 9
21 142 1
21 143 10
21 145 4
21 147 9
21 149 8
21 151 2
21 155 2
21 156 4
21 157 10
21 158 9
21 159 8
21 160 2
21 161 10
21 163 10
21 164 7
21 165 9
21 166 8
21 168 2
21 169 7
21 171 7
21 172 2
21 173 2
21 175 8
21 179 4
21 180 6
21 181 7
21 182 10
21 183 9
21 185 7
21 188 4
21 189 2
21 190 3
21 191 5
21 192 2
21 193 3
21 195 9
21 198 4
21 199 8
21 200 3
22 23 9
22 24 2
22 26 4
22 27 5
22 28 8
22 29 9
22 30 8
22 31 4
22 32 5
22 33 2
22 37 4
22 38 9
22 39 5
22 40 4
22 41 2
22 42 5
22 43 9
22 44 9
22 45 9
22 46 5
22 47 3
22 49 8
22 50 8
22 51 5
22 53 7
22 56 10
22 58 2
22 59 4
22 61 9
22 62 9
22 63 2
22 64 6
22 65 8
22 66 10
22 67 10
22 68 1
22 69 7
22 70 2
22 72 5
22 73 9
22 74 5
22 76 5
22 79 4
22 80 3
22 81 10
22 82 2
22 83 6
22 86 9
22 88 6
22 91 8
22 93 7
22 95 1
22 97 3
22 98 5
22 99 10
22 100 2
22 101 8
22 102 7
22 103 6
22 104 8
22 106 7
22 107 10
22 108 4
22 109 4
22 110 6
22 111 3
22 112 2
22 116 8
22 118 10
22 122 9
22 123 4
22 125 2
22 126 8
22 127 3
22 128 8
22 129 5
22 130 7
22 131 10
22 132 2
22 133 10
22 134 4
22 135 5
22 136 6
22 137 5
22 138 10
22 139 2
22 140 7
22 141 4
22 142 1
22 143 5
22 144 2
22 145 10
22 146 2
22 147 3
22 149 8
22 150 2
22 152 1
22 153 1
22 154 5
22 156 5
22 157 10
22 158 10
22 163 5
22 164 1
22 165 4
22 167 5
22 168 8
22 169 10
22 172 3
22 173 9
22 174 10
22 176 2
22 177 2
22 178 1
22 180 1
22 181 5
22 183 1
22 184 7
22 187 7
22 188 9
22 189 7
22 190 8
22 191 7
22 193 9
22 195 10
22 198 4
22 199 2
22 200 4
23 24 4
23 27 7
23 28 4
23 29 10
23 30 9
23 31 5
23 32 6
23 33 8
23 34 2
23 41 5
23 44 10
23 45 8
23 46 8
23 48 10
23 49 6
23 50 1
23 54 9
23 55 5
23 56 6
23 58 7
23 61 5
23 63 3
23 64 1
23 65 6
23 67 7
23 68 6
23 69 3
23 71 9
23 73 9
23 74 3
23 75 6
23 78 8
23 79 1
23 82 1
23 85 3
23 86 5
23 87 1
23 88 9
23 90 8
23 91 2
23 92 1
23 93 7
23 95 1
23 96 8
23 97 7
23 98 5
23 99 2
23 100 6
23 102 6
23 104 4
23 109 5
23 110 1
23 112 2
23 114 7
23 116 2
23 118 1
23 119 10
23 120 8
23 121 1
23 123 7
23 124 4
23 125 5
23 126 10
23 128 7
23 130 8
23 131 7
23 132 6
23 133 10
23 135 3
23 139 4
23 141 8
23 142 4
23 143 6
23 145 8
23 147 2
23 148 6
23 150 1
23 151 6
23 152 7
23 154 5
23 155 6
23 158 4
23 160 9
23 161 5
23 162 5
23 164 6
23 165 3
23 166 6
23 167 4
23 169 5
23 170 4
23 171 9
23 173 6
23 174 10
23 175 1
23 176 1
23 177 3
23 179 8
23 180 6
23 181 4
23 183 1
23 184 1
23 186 8
23 187 4
23 188 7
23 189 5
23 190 10
23 192 8
23 193 8
23 195 8
23 196 10
23 197 8
23 199 5
23 200 7
24 26 4
24 27 1
24 28 8
24 29 5
24 30 10
24 33 4
24 35 3
24 36 1
24 38 4
24 39 7
24 40 10
24 44 6
24 45 10
24 47 4
24 48 6
24 49 7
24 50 9
24 51 2
24 53 9
24 55 1
24 56 3
24 57 4
24 59 2
24 60 9
24 63 2
24 64 3
24 66 4
24 67 10
24 68 4
24 69 4
24 70 9
24 71 9
24 73 7
24 76 10
24 77 7
24 79 3
24 80 3
24 81 3
24 82 9
24 85 7
24 86 3
24 88 4
24 89 2
24 92 2
24 93 5
24 94 7
24 96 8
24 98 2
24 99 8
24 100 9
24 102 10
24 105 5
24 106 9
24 107 3
24 108 9
24 109 5
24 110 7
24 113 10
24 115 3
24 116 10
24 117 3
24 118 3
24 119 8
24 120 6
24 121 9
24 122 8
24 123 9
24 124 7
24 125 10
24 126 8
24 127 5
24 129 5
24 130 10
24 131 3
24 132 2
24 133 3
24 134 4
24 135 10
24 136 8
24 137 5
24 138 1
24 139 4
24 141 10
24 142 3
24 145 2
24 146 8
24 148 1
24 150 10
24 151 9
24 154 10
24 155 3
24 156 2
24 157 3
24 158 6
24 159 7
24 160 2
24 163 3
24 164 4
24 166 1
24 167 3
24 168 10
24 169 5
24 170 6
24 171 5
24 172 9
24 173 4
24 174 2
24 175 10
24 177 4
24 178 2
24 180 4
24 181 5
24 183 8
24 184 3
24 185 2
24 189 3
24 190 1
24 191 1
24 192 7
24 194 4
24 195 1
24 196 5
24 197 10
25 26 9
25 27 6
25 28 10
25 29 2
25 30 5
25 31 5
25 35 9
25 38 4
25 39 1
25 40 3
25 41 3
25 43 8
25 45 8
25 46 5
25 47 7
25 48 5
25 49 8
25 51 9
25 52 10
25 53 3
25 54 6
25 55 7
25 56 6
25 58 10
25 59 1
25 60 9
25 61 10
25 62 2
25 63 4
25 64 5
25 66 3
25 67 4
25 68 5
25 69 10
25 70 1
25 71 5
25 75 4
25 77 6
25 79 2
25 80 9
25 81 5
25 82 8
25 88 8
25 90 10
25 91 3
25 92 4
25 93 2
25 94 9
25 95 2
25 96 1
25 97 9
25 98 4
25 99 9
25 100 9
25 105 6
25 106 2
25 109 1
25 110 2
25 111 5
25 112 1
25 113 8
25 115 6
25 116 3
25 118 8
25 119 1
25 120 6
25 121 5
25 122 6
25 123 6
25 128 3
25 129 3
25 130 2
25 131 5
25 133 3
25 134 5
25 135 9
25 136 9
25 137 6
25 138 8
25 139 2
25 140 3
25 141 3
25 142 5
25 143 8
25 144 6
25 146 2
25 147 8
25 148 2
25 149 5
25 152 10
25 154 9
25 156 4
25 157 6
25 158 3
25 159 6
25 160 2
25 162 8
25 164 5
25 165 1
25 166 4
25 169 10
25 170 7
25 171 10
25 172 1
25 173 2
25 174 4
25 176 7
25 178 10
25 180 4
25 181 4
25 183 6
25 186 7
25 187 5
25 189 5
25 190 4
25 191 10
25 192 5
25 193 2
25 194 5
25 197 6
25 198 4
25 199 7
26 27 6
26 28 7
26 31 4
26 32 9
26 33 3
26 35 9
26 36 9
26 38 8
26 41 8
26 42 9
26 43 10
26 44 5
26 45 10
26 47 5
26 48 5
26 53 7
26 55 4
26 56 1
26 57 1
26 60 3
26 61 5
26 62 7
26 64 1
26 65 7
26 66 2
26 67 6
26 69 1
26 70 10
26 71 4
26 72 2
26 73 9
26 74 10
26 75 7
26 77 5
26 79 5
26 80 6
26 81 4
26 83 2
26 84 9
26 85 9
26 86 9
26 89 7
26 92 1
26 94 3
26 95 9
26 96 9
26 97 9
26 98 4
26 99 2
26 100 9
26 103 10
26 104 9
26 106 9
26 107 9
26 108 8
26 111 9
26 112 1
26 116 9
26 118 10
26 119 2
26 120 1
26 121 1
26 122 8
26 123 3
26 124 7
26 126 8
26 128 10
26 130 3
26 133 9
26 134 9
26 135 5
26 136 7
26 137 6
26 139 9
26 141 10
26 143 1
26 144 2
26 145 4
26 146 3
26 147 7
26 148 8
26 149 6
26 151 8
26 153 4
26 156 6
26 157 1
26 158 9
26 160 8
26 161 10
26 162 1
26 163 4
26 164 4
26 165 4
26 167 2
26 168 6
26 173 4
26 174 4
26 175 3
26 176 6
26 177 7
26 179 10
26 180 8
26 181 9
26 183 2
26 184 7
26 185 3
26 186 10
26 187 3
26 189 8
26 190 5
26 193 9
26 195 4
26 196 2
26 198 8
26 199 8
26 200 9
27 28 3
27 29 7
27 31 8
27 32 4
27 33 6
27 35 3
27 37 10
27 39 9
27 41 10
27 43 10
27 44 3
27 45 1
27 46 1
27 47 1
27 50 10
27 51 2
27 52 7
27 53 10
27 55 9
27 56 5
27 57 9
27 59 8
27 60 2
27 61 3
27 62 8
27 63 1
27 64 9
27 65 5
27 68 2
27 69 3
27 73 4
27 75 3
27 76 1
27 77 4
27 78 4
27 80 1
27 81 4
27 83 4
27 84 4
27 87 8
27 89 10
27 91 7
27 92 10
27 93 10
27 94 2
27 95 2
27 96 7
27 97 5
27 98 3
27 100 7
27 101 8
27 103 8
27 105 10
27 109 10
27 110 8
27 111 4
27 113 4
27 115 5
27 116 5
27 117 7
27 118 3
27 120 3
27 121 2
27 125 1
27 126 7
27 127 3
27 128 4
27 129 3
27 130 4
27 131 9
27 133 9
27 134 2
27 136 9
27 139 10
27 141 1
27 142 8
27 143 9
27 144 4
27 146 9
27 147 5
27 148 7
27 153 4
27 155 7
27 156 6
27 157 1
27 158 6
27 160 5
27 161 10
27 162 2
27 163 6
27 167 5
27 168 8
27 169 2
27 170 7
27 172 3
27 173 7
27 174 2
27 175 7
27 176 4
27 177 10
27 178 7
27 179 6
27 180 10
27 181 9
27 183 10
27 184 2
27 185 3
27 186 10
27 187 1
27 188 4
27 189 7
27 194 10
27 195 3
27 196 8
27 198 1
27 199 9
27 200 2
28 29 8
28 31 7
28 33 9
28 35 5
28 36 4
28 37 1
28 38 8
28 39 1
28 40 2
28 41 8
28 42 6
28 43 9
28 44 6
28 46 2
28 47 8
28 48 10
28 49 10
28 50 7
28 53 3
28 54 8
28 57 7
28 58 4
28 60 4
28 61 6
28 62 7
28 63 1
28 64 3
28 66 7
28 67 7
28 70 7
28 72 3
28 73 7
28 74 3
28 76 5
28 85 3
28 87 4
28 88 3
28 91 1
28 94 7
28 96 2
28 97 7
28 100 1
28 101 8
28 103 4
28 104 1
28 105 2
28 106 4
28 107 8
28 108 8
28 109 5
28 110 7
28 111 3
28 114 1
28 115 5
28 116 3
28 117 8
28 118 2
28 119 5
28 121 1
28 122 3
28 126 5
28 127 9
28 128 3
28 129 8
28 130 1
28 132 5
28 133 8
28 134 10
28 135 6
28 138 6
28 140 10
28 141 5
28 142 5
28 143 7
28 145 9
28 148 1
28 149 8
28 150 8
28 151 8
28 155 10
28 156 4
28 158 1
28 159 1
28 160 3
28 161 10
28 163 5
28 166 7
28 167 8
28 169 4
28 170 1
28 172 2
28 173 2
28 174 2
28 175 6
28 177 10
28 179 7
28 180 8
28 181 1
28 183 2
28 184 8
28 185 2
28 186 2
28 189 7
28 190 2
28 191 1
28 192 5
28 193 7
28 194 7
28 195 5
28 196 8
28 198 1
28 199 1
28 200 9
29 31 3
29 32 9
29 33 6
29 34 7
29 35 1
29 37 3
29 38 9
29 39 8
29 40 1
29 41 8
29 42 3
29 43 5
29 45 5
29 46 6
29 47 4
29 48 2
29 50 10
29 51 6
29 52 5
29 53 5
29 54 3
29 55 2
29 57 5
29 59 4
29 61 1
29 63 7
29 64 4
29 65 3
29 66 4
29 70 5
29 71 2
29 74 10
29 75 5
29 76 3
29 77 6
29 79 8
29 80 9
29 81 7
29 82 6
29 83 6
29 84 6
29 85 10
29 86 7
29 87 2
29 88 5
29 89 5
29 90 3
29 91 5
29 92 2
29 94 5
29 95 3
29 96 6
29 98 8
29 99 7
29 100 6
29 102 7
29 104 7
29 105 5
29 107 5
29 108 8
29 109 4
29 110 1
29 111 4
29 112 7
29 114 4
29 115 7
29 116 1
29 117 6
29 118 6
29 119 7
29 120 8
29 121 5
29 123 8
29 124 3
29 125 10
29 126 10
29 127 6
29 128 8
29 129 6
29 131 9
29 132 4
29 134 7
29 136 3
29 138 2
29 139 5
29 142 4
29 143 8
29 144 2
29 145 10
29 146 1
29 148 5
29 149 1
29 151 3
29 152 1
29 153 1
29 155 6
29 157 10
29 158 8
29 159 7
29 160 3
29 161 7
29 162 4
29 163 1
29 164 7
29 165 3
29 166 2
29 168 2
29 169 8
29 171 3
29 173 9
29 175 7
29 177 5
29 178 6
29 179 5
29 180 4
29 181 8
29 183 1
29 184 6
29 185 4
29 186 8
29 187 3
29 189 8
29 191 8
29 192 9
29 193 3
29 194 3
29 195 4
29 196 1
29 197 8
29 198 9
29 200 1
30 31 10
30 32 9
30 34 10
30 35 2
30 37 7
30 38 10
30 40 7
30 42 5
30 43 7
30 44 1
30 45 1
30 46 9
30 47 2
30 48 7
30 49 4
30 51 7
30 52 5
30 53 8
30 54 1
30 55 8
30 56 8
30 57 8
30 58 5
30 61 4
30 63 3
30 65 6
30 66 10
30 67 6
30 70 3
30 71 2
30 72 6
30 73 2
30 74 3
30 75 2
30 76 9
30 77 4
30 79 10
30 80 1
30 82 10
30 83 10
30 84 4
30 88 8
30 91 3
30 92 4
30 93 3
30 95 3
30 96 8
30 97 4
30 98 3
30 99 1
30 101 1
30 102 4
30 103 9
30 104 1
30 105 7
30 106 6
30 107 2
30 108 6
30 109 3
30 110 4
30 111 3
30 112 7
30 113 9
30 114 2
30 115 3
30 116 7
30 118 2
30 119 5
30 120 3
30 121 9
30 123 9
30 124 10
30 125 7
30 126 5
30 127 6
30 129 3
30 130 3
30 131 6
30 133 9
30 134 8
30 135 7
30 138 6
30 139 8
30 141 6
30 142 9
30 143 10
30 144 2
30 145 10
30 146 8
30 147 9
30 148 6
30 151 4
30 152 4
30 154 5
30 155 10
30 156 5
30 157 5
30 158 8
30 159 2
30 160 10
30 161 7
30 162 6
30 163 3
30 164 8
30 165 9
30 166 6
30 167 3
30 168 6
30 170 8
30 171 2
30 172 3
30 173 10
30 174 3
30 175 8
30 178 2
30 179 2
30 184 10
30 185 7
30 187 3
30 188 3
30 190 10
30 192 4
30 193 10
30 194 6
30 195 10
30 198 3
30 199 8
30 200 7
31 36 6
31 37 6
31 38 9
31 39 2
31 40 7
31 41 8
31 42 5
31 43 10
31 44 5
31 45 8
31 46 4
31 47 1
31 48 9
31 49 3
31 51 5
31 52 9
31 53 5
31 54 8
31 55 9
31 56 3
31 57 10
31 58 4
31 59 1
31 60 5
31 61 3
31 62 3
31 63 3
31 64 5
31 66 6
31 69 1
31 70 2
31 72 3
31 74 1
31 75 8
31 78 4
31 80 7
31 81 2
31 83 2
31 84 8
31 86 5
31 87 10
31 88 8
31 89 4
31 90 10
31 91 3
31 93 4
31 94 3
31 96 7
31 97 7
31 99 2
31 100 9
31 102 5
31 104 6
31 106 1
31 107 4
31 108 6
31 109 1
31 111 8
31 112 2
31 113 10
31 114 8
31 116 8
31 117 4
31 118 1
31 120 6
31 121 5
31 122 2
31 123 10
31 124 4
31 125 7
31 126 5
31 128 1
31 129 9
31 130 4
31 131 10
31 134 10
31 136 10
31 137 4
31 138 7
31 142 4
31 143 8
31 145 4
31 147 6
31 148 4
31 149 2
31 152 8
31 153 2
31 154 10
31 155 10
31 156 3
31 160 5
31 162 4
31 163 4
31 167 8
31 168 7
31 169 9
31 170 8
31 171 8
31 172 6
31 173 4
31 174 5
31 175 8
31 176 7
31 178 4
31 180 5
31 181 9
31 183 8
31 188 4
31 189 7
31 191 1
31 192 5
31 193 8
31 195 6
31 197 2
31 199 3
31 200 6
32 33 9
32 35 4
32 36 5
32 38 6
32 39 3
32 40 10
32 41 3
32 42 2
32 43 10
32 45 2
32 49 5
32 50 10
32 52 8
32 53 10
32 54 9
32 55 10
32 57 8
32 58 8
32 59 5
32 60 6
32 61 6
32 62 4
32 64 8
32 65 6
32 67 6
32 68 5
32 69 3
32 71 6
32 72 10
32 76 10
32 77 5
32 79 8
32 80 2
32 81 1
32 83 8
32 86 8
32 89 4
32 90 10
32 92 4
32 94 6
32 97 10
32 98 2
32 99 10
32 100 6
32 102 10
32 104 7
32 105 2
32 108 5
32 112 7
32 113 6
32 116 4
32 119 6
32 120 5
32 121 9
32 122 7
32 123 3
32 124 3
32 126 10
32 127 8
32 128 4
32 130 2
32 131 3
32 132 4
32 134 10
32 135 5
32 136 10
32 137 8
32 138 5
32 139 6
32 140 7
32 141 10
32 142 10
32 143 8
32 144 1
32 146 9
32 147 1
32 148 5
32 149 4
32 151 3
32 153 1
32 157 10
32 158 3
32 160 10
32 161 2
32 162 8
32 163 1
32 165 10
32 166 3
32 168 6
32 169 6
32 170 8
32 174 1
32 175 2
32 176 8
32 177 7
32 179 8
32 180 6
32 181 5
32 183 2
32 184 9
32 185 6
32 187 2
32 188 10
32 190 10
32 191 9
32 192 10
32 193 6
32 194 1
32 195 2
32 196 6
32 197 6
32 198 10
32 200 10
33 34 6
33 35 1
33 36 10
33 37 8
33 38 4
33 39 7
33 40 1
33 41 2
33 45 4
33 48 8
33 49 9
33 52 5
33 53 6
33 54 3
33 55 4
33 56 7
33 57 2
33 58 4
33 59 4
33 61 7
33 62 6
33 63 9
33 64 2
33 65 5
33 69 3
33 70 2
33 71 7
33 74 4
33 75 6
33 76 3
33 78 6
33 79 3
33 80 1
33 81 2
33 83 6
33 86 8
33 87 9
33 88 7
33 89 8
33 90 3
33 91 2
33 93 7
33 95 3
33 96 10
33 100 9
33 103 4
33 105 1
33 107 2
33 108 6
33 109 1
33 112 1
33 114 4
33 116 1
33 118 3
33 119 2
33 120 6
33 121 4
33 122 4
33 124 7
33 125 3
33 126 1
33 128 1
33 129 2
33 130 9
33 131 10
33 133 3
33 134 10
33 135 1
33 136 5
33 137 7
33 138 4
33 139 3
33 141 4
33 143 7
33 144 5
33 146 2
33 147 5
33 148 2
33 150 3
33 152 5
33 153 4
33 154 4
33 156 2
33 158 2
33 159 7
33 160 9
33 162 6
33 163 4
33 165 9
33 166 5
33 168 5
33 169 5
33 172 7
33 173 4
33 174 7
33 175 9
33 176 3
33 179 5
33 181 2
33 182 8
33 183 8
33 184 10
33 185 10
33 187 4
33 188 2
33 189 8
33 191 10
33 192 3
33 193 10
33 194 1
33 195 9
33 196 5
33 197 3
33 198 5
33 199 8
33 200 1
34 35 8
34 36 3
34 38 10
34 39 2
34 40 7
34 42 3
34 44 6
34 46 2
34 47 7
34 50 3
34 51 1
34 52 4
34 53 5
34 54 7
34 55 2
34 56 9
34 57 6
34 58 1
34 60 7
34 62 10
34 64 9
34 65 3
34 66 1
34 67 3
34 69 4
34 70 6
34 72 1
34 73 8
34 74 8
34 75 5
34 76 1
34 79 4
34 80 9
34 82 2
34 83 3
34 86 5
34 87 4
34 88 2
34 89 6
34 90 9
34 91 10
34 92 6
34 93 3
34 94 1
34 95 3
34 97 9
34 99 5
34 101 8
34 102 8
34 105 10
34 106 2
34 107 7
34 108 9
34 109 8
34 111 4
34 112 3
34 113 5
34 115 3
34 116 3
34 117 6
34 118 3
34 120 7
34 122 4
34 124 5
34 126 1
34 128 5
34 129 1
34 131 6
34 132 3
34 134 9
34 135 7
34 137 9
34 139 4
34 140 4
34 141 10
34 142 2
34 145 10
34 146 2
34 147 9
34 148 5
34 151 7
34 152 10
34 153 9
34 155 1
34 157 1
34 160 1
34 162 3
34 163 10
34 164 4
34 165 1
34 168 9
34 169 8
34 170 5
34 171 6
34 172 7
34 173 5
34 174 6
34 175 10
34 176 3
34 177 7
34 178 2
34 179 2
34 182 4
34 183 8
34 184 9
34 185 2
34 186 6
34 187 8
34 188 7
34 190 5
34 191 9
34 192 1
34 193 6
34 195 10
34 196 10
34 198 2
34 199 10
34 200 9
35 37 1
35 38 5
35 40 8
35 45 7
35 47 9
35 48 6
35 49 2
35 51 10
35 52 5
35 53 1
35 56 6
35 57 2
35 59 9
35 62 5
35 63 4
35 64 9
35 65 6
35 66 4
35 69 2
35 70 9
35 72 2
35 73 1
35 74 10
35 75 6
35 76 5
35 78 3
35 79 5
35 81 4
35 83 4
35 86 6
35 87 1
35 88 9
35 90 8
35 93 10
35 94 8
35 95 3
35 96 2
35 97 7
35 98 5
35 102 1
35 103 6
35 105 7
35 106 3
35 108 1
35 111 2
35 113 6
35 114 3
35 115 8
35 119 9
35 120 6
35 121 3
35 123 6
35 124 4
35 125 10
35 126 5
35 128 5
35 129 9
35 132 6
35 133 9
35 134 9
35 137 3
35 139 2
35 140 7
35 142 3
35 143 1
35 144 5
35 145 5
35 146 4
35 147 5
35 149 2
35 152 7
35 153 4
35 155 4
35 156 8
35 157 4
35 158 6
35 160 2
35 161 2
35 162 6
35 163 4
35 164 1
35 165 3
35 166 5
35 168 10
35 169 6
35 172 3
35 173 5
35 174 8
35 175 3
35 177 1
35 179 2
35 181 4
35 182 9
35 183 8
35 186 7
35 187 3
35 188 9
35 189 8
35 190 3
35 192 9
35 197 4
35 198 6
35 200 7
36 37 7
36 38 8
36 40 8
36 41 3
36 43 1
36 45 1
36 47 9
36 48 2
36 49 8
36 50 9
36 53 9
36 54 3
36 56 4
36 57 1
36 60 10
36 61 8
36 62 8
36 63 9
36 64 3
36 65 3
36 67 2
36 68 4
36 69 2
36 72 9
36 74 9
36 75 4
36 76 4
36 77 2
36 79 6
36 80 5
36 83 3
36 84 6
36 85 8
36 88 1
36 89 9
36 90 3
36 92 5
36 93 8
36 94 9
36 95 4
36 96 4
36 97 8
36 98 8
36 99 4
36 100 4
36 101 5
36 102 3
36 103 1
36 104 7
36 105 8
36 106 1
36 108 10
36 109 4
36 112 9
36 113 1
36 115 7
36 116 3
36 118 1
36 120 4
36 121 3
36 122 4
36 123 10
36 128 2
36 129 9
36 131 7
36 132 3
36 133 8
36 137 3
36 138 5
36 139 4
36 141 6
36 142 9
36 143 7
36 144 3
36 145 7
36 146 5
36 147 1
36 149 2
36 150 9
36 151 4
36 152 4
36 154 1
36 155 5
36 156 4
36 157 3
36 158 3
36 159 7
36 160 8
36 161 1
36 162 1
36 163 4
36 164 5
36 170 2
36 173 8
36 175 9
36 176 3
36 177 4
36 178 9
36 179 2
36 182 7
36 183 2
36 185 1
36 186 8
36 187 9
36 188 5
36 189 5
36 190 3
36 191 2
36 192 10
36 193 6
36 194 4
36 195 5
36 198 4
36 199 6
37 38 6
37 39 9
37 40 1
37 41 9
37 43 4
37 44 1
37 45 9
37 46 1
37 48 1
37 52 10
37 53 7
37 54 4
37 55 10
37 57 7
37 59 1
37 61 10
37 62 1
37 64 2
37 65 10
37 67 4
37 68 2
37 69 2
37 70 8
37 72 1
37 73 9
37 75 1
37 76 1
37 78 5
37 79 6
37 80 1
37 81 2
37 82 10
37 83 8
37 84 7
37 85 3
37 88 1
37 89 9
37 91 6
37 92 6
37 97 10
37 99 4
37 101 9
37 102 2
37 104 2
37 106 8
37 107 3
37 108 8
37 110 9
37 111 6
37 112 7
37 115 6
37 117 2
37 118 5
37 119 3
37 120 4
37 121 10
37 122 1
37 124 7
37 125 8
37 126 8
37 127 7
37 128 5
37 129 6
37 130 6
37 133 6
37 134 5
37 135 10
37 136 8
37 137 10
37 138 2
37 139 5
37 141 1
37 142 6
37 143 6
37 144 5
37 145 6
37 146 2
37 148 10
37 150 7
37 151 1
37 152 2
37 154 1
37 159 2
37 161 1
37 163 4
37 164 4
37 166 6
37 167 6
37 168 3
37 169 7
37 171 5
37 175 9
37 176 9
37 177 6
37 178 2
37 180 10
37 181 3
37 183 8
37 184 10
37 185 10
37 187 1
37 188 8
37 189 3
37 191 4
37 194 7
37 195 10
37 197 7
37 198 9
37 199 9
37 200 4
38 41 4
38 45 7
38 47 8
38 50 9
38 51 10
38 52 4
38 53 9
38 54 8
38 55 4
38 56 2
38 58 5
38 59 10
38 61 7
38 62 10
38 65 5
38 66 6
38 67 4
38 68 5
38 69 1
38 70 4
38 71 6
38 74 9
38 77 3
38 78 10
38 79 6
38 80 9
38 82 10
38 85 5
38 86 4
38 88 10
38 89 5
38 90 9
38 91 8
38 93 1
38 94 1
38 95 1
38 98 1
38 99 6
38 100 3
38 101 5
38 102 10
38 103 6
38 106 4
38 107 5
38 108 8
38 109 8
38 112 7
38 113 1
38 114 7
38 115 6
38 117 4
38 119 8
38 120 2
38 121 5
38 123 2
38 125 8
38 127 3
38 128 4
38 130 5
38 131 9
38 132 5
38 134 6
38 135 3
38 137 4
38 139 1
38 140 4
38 143 4
38 144 4
38 145 10
38 146 6
38 147 8
38 148 10
38 150 1
38 151 6
38 152 10
38 153 7
38 156 10
38 157 4
38 159 8
38 162 2
38 163 5
38 164 3
38 166 7
38 167 9
38 168 8
38 170 9
38 171 5
38 174 3
38 175 2
38 176 6
38 177 2
38 178 4
38 179 5
38 180 6
38 181 8
38 182 2
38 183 4
38 184 10
38 185 8
38 186 1
38 187 5
38 188 1
38 189 3
38 190 5
38 193 1
38 194 10
38 195 2
38 196 6
38 197 1
38 198 5
38 199 9
38 200 10
39 40 5
39 41 1
39 42 5
39 43 1
39 44 4
39 45 4
39 46 1
39 49 5
39 50 8
39 51 4
39 53 7
39 54 10
39 55 2
39 59 7
39 60 6
39 61 5
39 63 6
39 65 3
39 66 4
39 67 2
39 68 4
39 69 8
39 70 5
39 71 5
39 72 5
39 75 8
39 76 2
39 77 10
39 78 4
39 79 1
39 80 8
39 81 4
39 82 7
39 84 6
39 85 9
39 86 4
39 89 3
39 90 2
39 91 5
39 92 6
39 93 9
39 94 9
39 95 6
39 96 9
39 97 9
39 98 9
39 99 8
39 103 10
39 104 7
39 107 2
39 108 5
39 109 7
39 110 4
39 111 10
39 112 10
39 113 9
39 114 6
39 116 8
39 118 3
39 119 9
39 121 10
39 122 7
39 124 9
39 125 4
39 126 7
39 127 2
39 129 8
39 130 1
39 132 9
39 134 10
39 135 10
39 137 10
39 138 1
39 139 1
39 141 3
39 142 2
39 143 3
39 144 7
39 145 1
39 146 6
39 147 3
39 148 5
39 149 9
39 150 2
39 152 2
39 153 1
39 154 9
39 155 3
39 157 4
39 159 7
39 160 6
39 161 2
39 162 3
39 164 1
39 165 4
39 166 4
39 167 6
39 168 9
39 170 3
39 172 9
39 173 9
39 175 3
39 176 6
39 178 6
39 179 9
39 181 6
39 183 7
39 184 1
39 185 8
39 186 9
39 187 2
39 189 4
39 191 10
39 192 9
39 195 4
39 196 9
39 197 3
39 198 5
39 199 10
40 41 4
40 42 3
40 43 3
40 44 7
40 46 5
40 47 9
40 48 3
40 49 9
40 51 8
40 52 5
40 53 8
40 56 10
40 57 7
40 58 2
40 61 6
40 62 4
40 65 10
40 66 7
40 67 3
40 68 10
40 69 9
40 70 3
40 71 9
40 72 7
40 73 2
40 74 5
40 75 6
40 76 4
40 77 5
40 78 5
40 79 5
40 80 10
40 81 4
40 82 8
40 83 6
40 84 6
40 86 9
40 87 2
40 88 6
40 91 8
40 94 4
40 95 10
40 96 10
40 97 10
40 98 5
40 100 10
40 101 8
40 102 8
40 103 6
40 104 4
40 105 3
40 106 3
40 107 7
40 109 6
40 111 3
40 112 10
40 113 10
40 115 9
40 117 1
40 120 5
40 121 4
40 122 4
40 124 10
40 126 2
40 128 6
40 129 4
40 130 10
40 131 5
40 135 5
40 136 10
40 137 6
40 138 5
40 140 4
40 141 9
40 142 5
40 143 4
40 145 9
40 146 5
40 147 2
40 149 2
40 150 6
40 151 1
40 154 8
40 155 9
40 156 10
40 159 6
40 160 3
40 161 3
40 162 3
40 163 2
40 165 6
40 167 9
40 168 9
40 170 3
40 171 7
40 172 8
40 173 10
40 174 10
40 175 7
40 177 8
40 180 9
40 181 8
40 183 8
40 184 10
40 185 9
40 187 6
40 188 8
40 190 1
40 191 2
40 192 1
40 195 9
40 196 2
40 197 3
40 200 1
41 44 1
41 45 1
41 46 10
41 48 10
41 50 9
41 51 1
41 52 5
41 53 7
41 56 10
41 57 5
41 59 2
41 60 1
41 61 1
41 62 8
41 64 2
41 66 9
41 68 4
41 69 6
41 70 1
41 71 10
41 72 10
41 74 9
41 75 2
41 76 10
41 80 4
41 81 7
41 82 8
41 83 9
41 84 1
41 86 8
41 88 10
41 89 4
41 90 3
41 92 10
41 93 3
41 94 5
41 96 7
41 98 9
41 99 5
41 100 10
41 103 10
41 104 10
41 106 5
41 107 6
41 111 7
41 114 9
41 118 7
41 119 6
41 120 1
41 121 9
41 122 4
41 123 5
41 124 2
41 126 10
41 128 5
41 129 5
41 131 8
41 133 2
41 134 2
41 135 3
41 136 2
41 137 2
41 138 8
41 139 1
41 140 5
41 142 4
41 144 2
41 145 5
41 146 2
41 148 9
41 149 10
41 150 9
41 151 8
41 153 2
41 154 6
41 155 8
41 156 9
41 161 6
41 162 10
41 163 9
41 166 1
41 167 8
41 168 9
41 169 10
41 170 8
41 172 9
41 173 4
41 174 2
41 176 6
41 177 5
41 178 7
41 180 7
41 181 8
41 182 9
41 183 10
41 184 4
41 185 7
41 187 8
41 189 3
41 193 1
41 195 1
41 196 1
41 197 7
41 199 3
41 200 10
42 45 1
42 46 2
42 49 9
42 50 9
42 51 2
42 52 4
42 54 6
42 56 6
42 57 9
42 60 1
42 61 8
42 62 2
42 64 3
42 65 2
42 66 3
42 67 5
42 70 6
42 71 4
42 72 2
42 74 2
42 75 6
42 79 1
42 80 5
42 81 8
42 82 3
42 84 7
42 85 5
42 86 7
42 89 9
42 90 8
42 91 2
42 92 3
42 93 2
42 96 6
42 97 5
42 99 9
42 100 6
42 101 10
42 104 10
42 105 2
42 106 2
42 108 5
42 109 10
42 110 1
42 111 10
42 112 9
42 113 10
42 115 10
42 116 10
42 117 6
42 119 3
42 121 8
42 123 2
42 125 5
42 127 6
42 128 5
42 129 1
42 131 4
42 133 7
42 134 7
42 136 9
42 137 2
42 138 7
42 139 5
42 140 5
42 142 2
42 144 5
42 145 9
42 146 9
42 148 6
42 149 2
42 150 10
42 151 10
42 153 2
42 155 3
42 156 4
42 158 9
42 159 6
42 160 6
42 161 4
42 162 7
42 163 1
42 166 6
42 168 9
42 169 1
42 170 1
42 172 1
42 174 5
42 176 2
42 178 4
42 180 6
42 181 1
42 182 1
42 183 10
42 184 5
42 185 5
42 187 8
42 188 8
42 190 8
42 191 1
42 192 9
42 194 7
42 195 1
42 196 6
42 198 6
42 199 9
42 200 2
43 44 6
43 46 4
43 48 9
43 49 2
43 50 10
43 51 7
43 53 3
43 54 10
43 55 8
43 56 8
43 57 8
43 58 3
43 59 4
43 60 2
43 61 2
43 62 1
43 63 1
43 64 5
43 65 8
43 67 6
43 68 1
43 69 10
43 70 5
43 72 8
43 73 9
43 74 3
43 75 1
43 79 3
43 80 1
43 81 9
43 82 6
43 83 1
43 85 9
43 86 5
43 87 3
43 88 5
43 89 7
43 92 4
43 93 7
43 94 1
43 95 7
43 96 2
43 97 1
43 98 2
43 99 4
43 102 3
43 106 7
43 107 10
43 110 4
43 111 4
43 112 3
43 113 7
43 114 7
43 115 10
43 116 7
43 117 1
43 119 10
43 120 2
43 121 3
43 122 4
43 123 1
43 124 6
43 126 7
43 127 10
43 130 5
43 134 5
43 137 1
43 138 8
43 140 10
43 142 4
43 144 8
43 145 8
43 146 6
43 148 4
43 149 10
43 150 7
43 151 5
43 152 9
43 153 2
43 154 8
43 155 7
43 157 2
43 158 9
43 159 6
43 160 5
43 161 2
43 162 6
43 163 10
43 164 10
43 166 2
43 169 6
43 171 10
43 173 10
43 176 9
43 177 3
43 178 6
43 180 5
43 181 7
43 183 1
43 184 3
43 185 1
43 186 7
43 188 4
43 189 1
43 190 9
43 191 9
43 192 3
43 195 6
43 196 3
43 197 8
43 200 10
44 45 4
44 47 10
44 48 8
44 50 5
44 53 5
44 55 5
44 56 1
44 57 5
44 58 9
44 60 2
44 61 7
44 62 4
44 63 1
44 64 5
44 65 8
44 66 1
44 67 7
44 68 6
44 69 8
44 70 9
44 71 10
44 73 2
44 74 1
44 78 4
44 79 10
44 83 10
44 85 6
44 87 4
44 88 7
44 89 6
44 90 4
44 91 10
44 92 10
44 93 7
44 94 5
44 95 9
44 98 10
44 99 6
44 100 6
44 102 8
44 103 5
44 105 3
44 106 10
44 107 9
44 108 9
44 110 5
44 111 3
44 112 2
44 113 5
44 114 2
44 115 1
44 116 10
44 117 6
44 118 9
44 119 7
44 120 10
44 121 6
44 122 8
44 123 3
44 124 2
44 126 2
44 128 7
44 129 1
44 130 10
44 131 1
44 133 4
44 134 6
44 135 10
44 136 10
44 137 6
44 139 1
44 140 5
44 142 3
44 143 8
44 146 4
44 147 10
44 148 2
44 150 9
44 152 1
44 154 8
44 155 1
44 156 1
44 158 5
44 159 8
44 160 10
44 161 5
44 162 1
44 163 7
44 164 5
44 166 5
44 167 4
44 168 1
44 169 10
44 170 10
44 172 3
44 173 10
44 175 9
44 176 9
44 177 2
44 178 3
44 180 4
44 182 10
44 183 6
44 185 4
44 187 1
44 188 4
44 189 3
44 190 7
44 191 10
44 193 3
44 194 4
44 197 9
44 198 9
44 199 5
44 200 3
45 46 5
45 47 3
45 49 3
45 50 6
45 52 1
45 53 6
45 54 8
45 55 1
45 56 3
45 57 7
45 60 1
45 61 2
45 64 4
45 65 8
45 66 4
45 67 10
45 69 10
45 72 8
45 73 8
45 74 6
45 75 8
45 78 6
45 79 8
45 80 6
45 81 10
45 82 10
45 83 10
45 84 4
45 86 6
45 87 8
45 88 1
45 89 2
45 91 5
45 94 6
45 95 9
45 98 10
45 99 4
45 101 2
45 102 7
45 104 7
45 106 6
45 107 3
45 108 5
45 109 5
45 110 1
45 114 7
45 115 7
45 118 3
45 119 6
45 120 1
45 122 3
45 123 6
45 124 10
45 125 6
45 126 4
45 127 10
45 128 10
45 129 4
45 130 4
45 131 3
45 133 9
45 134 4
45 136 4
45 137 3
45 138 7
45 140 10
45 141 10
45 142 6
45 143 10
45 144 6
45 145 10
45 146 9
45 147 1
45 148 3
45 149 1
45 150 9
45 151 2
45 152 4
45 153 5
45 154 10
45 160 8
45 161 4
45 162 6
45 163 7
45 164 8
45 165 8
45 166 10
45 167 7
45 168 4
45 169 10
45 170 4
45 171 3
45 172 3
45 173 4
45 175 5
45 178 10
45 179 4
45 180 5
45 182 5
45 183 5
45 184 1
45 185 3
45 186 8
45 187 10
45 188 4
45 189 2
45 191 6
45 192 4
45 193 10
45 194 8
45 195 3
45 196 3
45 197 4
45 198 1
45 199 9
45 200 6
46 47 3
46 48 1
46 49 10
46 50 3
46 52 3
46 53 4
46 55 4
46 56 7
46 57 2
46 58 9
46 59 8
46 61 4
46 62 7
46 66 5
46 67 10
46 68 2
46 69 8
46 70 7
46 71 9
46 73 1
46 75 9
46 76 10
46 77 8
46 78 1
46 79 3
46 80 9
46 81 2
46 82 7
46 84 7
46 88 1
46 89 2
46 90 2
46 91 1
46 92 7
46 93 2
46 95 5
46 98 7
46 99 6
46 101 8
46 102 3
46 103 5
46 105 4
46 108 9
46 110 1
46 111 7
46 112 8
46 113 3
46 114 2
46 115 4
46 117 2
46 118 1
46 120 5
46 121 4
46 122 8
46 126 3
46 127 7
46 128 6
46 129 2
46 130 6
46 131 10
46 132 6
46 134 4
46 136 7
46 137 5
46 138 7
46 139 1
46 140 3
46 141 5
46 142 2
46 144 5
46 146 6
46 147 9
46 148 4
46 149 10
46 150 6
46 151 10
46 152 7
46 153 5
46 154 2
46 155 10
46 157 5
46 159 4
46 160 10
46 161 4
46 162 5
46 163 8
46 165 8
46 166 6
46 167 6
46 168 6
46 169 5
46 170 5
46 173 8
46 176 4
46 177 10
46 178 9
46 179 10
46 180 8
46 181 7
46 182 7
46 183 4
46 184 7
46 185 5
46 186 9
46 187 6
46 188 8
46 189 5
46 192 2
46 193 1
46 195 6
46 197 5
46 198 2
46 199 10
46 200 7
47 48 8
47 49 2
47 50 10
47 51 8
47 52 8
47 54 6
47 55 10
47 56 5
47 58 2
47 60 7
47 61 6
47 63 10
47 64 7
47 65 6
47 67 5
47 68 7
47 69 3
47 70 3
47 71 3
47 72 9
47 74 4
47 75 1
47 76 8
47 77 7
47 80 2
47 81 3
47 82 9
47 83 4
47 84 8
47 86 4
47 88 2
47 89 5
47 90 7
47 92 3
47 93 1
47 94 7
47 96 4
47 97 6
47 98 9
47 99 7
47 100 8
47 102 9
47 103 4
47 106 6
47 109 3
47 110 2
47 111 10
47 113 7
47 115 4
47 116 9
47 117 3
47 119 8
47 121 10
47 123 3
47 124 2
47 125 9
47 126 4
47 127 3
47 129 8
47 130 7
47 132 8
47 133 4
47 134 3
47 135 1
47 136 1
47 137 8
47 139 9
47 140 5
47 141 8
47 144 6
47 145 6
47 146 3
47 148 1
47 151 1
47 152 9
47 154 6
47 155 9
47 156 2
47 157 9
47 158 4
47 159 8
47 160 10
47 161 1
47 162 9
47 163 9
47 165 6
47 166 10
47 167 5
47 168 10
47 169 7
47 170 7
47 172 6
47 173 3
47 175 3
47 177 8
47 181 4
47 182 8
47 184 7
47 185 4
47 186 10
47 188 5
47 189 5
47 191 5
47 194 3
47 197 7
47 198 6
47 199 3
47 200 6
48 49 7
48 50 9
48 51 3
48 52 5
48 53 5
48 54 8
48 56 6
48 57 5
48 58 2
48 59 9
48 60 3
48 63 10
48 64 9
48 67 2
48 68 1
48 70 9
48 71 1
48 72 8
48 73 1
48 74 10
48 75 9
48 76 2
48 77 7
48 78 3
48 80 4
48 81 10
48 82 9
48 83 3
48 84 9
48 85 7
48 86 6
48 88 9
48 89 1
48 91 6
48 93 2
48 94 1
48 96 2
48 97 7
48 98 8
48 102 1
48 104 2
48 105 8
48 106 3
48 109 1
48 110 3
48 116 9
48 119 9
48 120 7
48 121 4
48 122 3
48 123 4
48 125 9
48 126 5
48 128 10
48 129 4
48 130 6
48 131 10
48 132 2
48 134 9
48 135 1
48 136 8
48 137 10
48 139 5
48 141 5
48 143 10
48 144 7
48 145 7
48 147 4
48 149 8
48 150 1
48 152 8
48 153 10
48 155 3
48 157 3
48 158 7
48 160 7
48 161 8
48 162 9
48 163 7
48 164 3
48 165 9
48 170 10
48 171 3
48 172 1
48 173 7
48 174 6
48 175 10
48 176 9
48 178 7
48 179 10
48 180 8
48 182 6
48 183 7
48 186 3
48 187 7
48 190 9
48 191 4
48 192 8
48 193 6
48 195 6
48 196 8
48 197 4
48 198 1
48 199 4
48 200 6
49 53 7
49 56 1
49 57 9
49 58 6
49 59 9
49 60 8
49 63 10
49 64 8
49 65 2
49 69 10
49 70 10
49 71 4
49 72 8
49 73 6
49 74 2
49 75 2
49 77 10
49 78 9
49 81 3
49 82 2
49 83 5
49 84 7
49 85 1
49 88 6
49 89 1
49 91 9
49 92 8
49 93 4
49 94 7
49 95 9
49 96 5
49 97 3
49 99 4
49 100 3
49 101 9
49 102 2
49 103 7
49 104 4
49 105 9
49 106 3
49 107 6
49 109 2
49 111 4
49 112 8
49 113 2
49 114 5
49 115 1
49 116 4
49 117 10
49 118 10
49 119 9
49 120 3
49 124 9
49 125 1
49 129 8
49 130 7
49 131 9
49 132 7
49 133 5
49 135 6
49 136 10
49 138 10
49 140 10
49 141 9
49 144 3
49 146 3
49 147 1
49 150 3
49 151 10
49 154 5
49 156 7
49 157 6
49 158 9
49 159 4
49 160 10
49 161 5
49 164 3
49 165 4
49 167 7
49 168 9
49 169 9
49 170 9
49 173 7
49 174 7
49 175 2
49 176 9
49 177 10
49 179 5
49 180 5
49 182 8
49 184 7
49 186 1
49 187 7
49 189 4
49 190 8
49 192 8
49 195 1
49 196 1
49 197 10
49 198 3
49 199 4
49 200 3
50 51 3
50 53 2
50 54 8
50 56 8
50 57 10
50 58 3
50 60 2
50 61 2
50 64 9
50 66 7
50 67 6
50 69 1
50 70 1
50 71 7
50 72 10
50 74 6
50 75 2
50 76 6
50 77 5
50 78 7
50 79 6
50 81 4
50 82 1
50 83 10
50 84 7
50 86 3
50 87 1
50 88 9
50 89 10
50 91 10
50 92 3
50 93 9
50 94 4
50 95 1
50 96 7
50 97 3
50 98 5
50 99 3
50 100 4
50 103 10
50 105 1
50 106 7
50 107 8
50 111 4
50 113 2
50 114 9
50 116 7
50 117 3
50 118 2
50 120 1
50 123 9
50 124 8
50 125 7
50 126 7
50 127 9
50 128 7
50 129 1
50 131 9
50 133 3
50 135 6
50 136 1
50 137 6
50 138 4
50 139 6
50 140 7
50 142 4
50 143 10
50 145 5
50 146 5
50 148 10
50 149 4
50 150 6
50 152 7
50 153 6
50 154 9
50 155 7
50 156 4
50 157 2
50 158 8
50 161 4
50 162 3
50 163 10
50 164 4
50 165 8
50 166 4
50 169 4
50 172 2
50 174 10
50 175 2
50 177 2
50 178 5
50 181 3
50 182 1
50 183 5
50 184 7
50 185 4
50 186 1
50 187 1
50 191 5
50 192 8
50 194 1
50 195 10
50 196 6
50 198 9
50 199 4
50 200 4
51 52 1
51 56 10
51 57 2
51 58 3
51 60 3
51 61 8
51 66 4
51 67 4
51 68 10
51 69 5
51 70 2
51 71 4
51 76 5
51 77 10
51 80 6
51 83 8
51 85 6
51 86 5
51 89 6
51 90 1
51 91 3
51 92 6
51 94 6
51 95 8
51 96 3
51 97 10
51 98 3
51 99 4
51 100 9
51 101 4
51 102 9
51 104 1
51 105 8
51 107 7
51 108 7
51 109 7
51 110 1
51 111 8
51 113 5
51 118 3
51 119 4
51 122 5
51 125 3
51 126 5
51 127 6
51 129 1
51 130 10
51 131 4
51 132 9
51 133 4
51 135 7
51 136 6
51 137 3
51 140 9
51 141 3
51 143 9
51 144 10
51 145 3
51 146 2
51 147 8
51 148 7
51 149 6
51 150 10
51 152 10
51 153 10
51 154 8
51 155 4
51 156 6
51 158 9
51 159 9
51 160 6
51 161 8
51 162 5
51 163 8
51 164 10
51 165 5
51 167 5
51 168 2
51 170 1
51 172 4
51 173 6
51 174 7
51 176 6
51 177 7
51 178 4
51 179 4
51 180 5
51 181 5
51 182 4
51 183 8
51 184 3
51 186 7
51 187 5
51 188 4
51 191 2
51 192 2
51 193 9
51 195 10
51 196 4
51 198 8
51 199 7
52 53 3
52 54 2
52 55 6
52 56 8
52 57 2
52 59 5
52 60 4
52 62 4
52 63 7
52 66 9
52 68 4
52 70 7
52 71 9
52 72 8
52 74 8
52 75 5
52 77 7
52 78 6
52 80 5
52 82 8
52 83 9
52 85 2
52 86 6
52 87 4
52 88 6
52 89 3
52 92 2
52 94 9
52 96 1
52 97 1
52 99 8
52 100 7
52 101 7
52 103 7
52 105 9
52 106 8
52 107 2
52 111 1
52 112 10
52 113 7
52 114 1
52 115 10
52 116 3
52 117 1
52 119 8
52 120 8
52 121 1
52 123 9
52 124 3
52 125 2
52 128 8
52 129 1
52 130 4
52 132 3
52 134 4
52 135 2
52 136 4
52 138 9
52 139 10
52 140 7
52 142 2
52 143 3
52 144 2
52 145 9
52 146 10
52 147 2
52 148 2
52 149 8
52 150 5
52 151 1
52 152 4
52 154 3
52 155 3
52 156 6
52 159 6
52 161 2
52 162 6
52 163 3
52 164 1
52 168 9
52 169 8
52 170 2
52 171 2
52 173 4
52 175 7
52 176 9
52 178 7
52 179 4
52 180 3
52 181 4
52 185 9
52 187 6
52 188 3
52 191 10
52 193 6
52 194 4
52 195 6
52 197 1
52 198 7
52 199 4
53 54 9
53 56 2
53 57 9
53 58 4
53 59 1
53 60 4
53 62 6
53 63 2
53 67 9
53 68 5
53 69 9
53 70 7
53 71 4
53 72 5
53 73 4
53 74 10
53 76 8
53 77 3
53 78 10
53 80 8
53 82 4
53 83 5
53 84 7
53 88 7
53 90 9
53 91 8
53 92 1
53 93 9
53 94 4
53 95 9
53 96 6
53 97 5
53 98 2
53 101 7
53 102 1
53 103 10
53 104 4
53 105 5
53 106 7
53 107 9
53 108 8
53 109 7
53 111 1
53 112 10
53 113 3
53 115 3
53 116 7
53 118 1
53 122 7
53 125 3
53 127 4
53 128 3
53 130 6
53 131 6
53 132 4
53 135 3
53 136 8
53 139 7
53 140 3
53 141 8
53 144 8
53 145 3
53 149 7
53 150 5
53 153 10
53 154 1
53 155 5
53 158 4
53 159 6
53 160 9
53 161 3
53 162 2
53 163 1
53 165 10
53 166 9
53 167 6
53 168 3
53 169 4
53 170 5
53 172 2
53 173 6
53 175 2
53 176 2
53 177 5
53 180 8
53 181 9
53 184 3
53 185 5
53 186 3
53 187 5
53 188 7
53 189 3
53 190 7
53 191 9
53 193 8
53 194 2
53 195 7
53 196 3
53 197 4
53 198 7
53 199 10
53 200 2
54 58 10
54 59 4
54 60 3
54 62 2
54 63 4
54 64 7
54 65 2
54 66 6
54 67 2
54 68 2
54 69 8
54 70 2
54 73 6
54 74 9
54 77 2
54 78 7
54 80 9
54 81 8
54 82 9
54 83 5
54 85 5
54 86 6
54 87 2
54 88 3
54 89 1
54 90 6
54 93 7
54 94 1
54 95 7
54 96 5
54 98 1
54 99 5
54 100 3
54 101 5
54 102 9
54 104 5
54 105 5
54 106 10
54 107 5
54 108 6
54 111 9
54 112 9
54 113 7
54 114 4
54 115 8
54 116 4
54 117 8
54 118 9
54 119 3
54 120 7
54 121 5
54 123 10
54 125 4
54 126 1
54 127 5
54 128 7
54 129 9
54 130 9
54 131 6
54 133 2
54 134 9
54 135 3
54 137 7
54 138 10
54 140 4
54 141 10
54 142 5
54 143 10
54 145 2
54 147 1
54 148 9
54 151 3
54 152 10
54 154 10
54 155 4
54 156 3
54 157 6
54 158 8
54 159 6
54 160 9
54 161 2
54 162 8
54 163 3
54 164 7
54 167 2
54 168 8
54 169 8
54 174 7
54 178 2
54 179 9
54 180 10
54 181 10
54 182 9
54 183 8
54 184 10
54 185 1
54 187 9
54 190 9
54 194 2
54 195 5
54 196 4
54 197 3
54 198 9
54 199 10
54 200 2
55 56 4
55 62 10
55 63 3
55 66 3
55 68 4
55 70 5
55 72 10
55 73 3
55 74 3
55 76 10
55 77 5
55 79 4
55 80 1
55 81 4
55 82 6
55 83 3
55 85 6
55 86 6
55 88 10
55 89 3
55 90 6
55 91 9
55 92 10
55 93 6
55 95 6
55 97 9
55 98 6
55 99 4
55 101 9
55 104 1
55 105 6
55 106 7
55 107 6
55 108 4
55 110 10
55 111 5
55 113 3
55 116 10
55 118 9
55 119 4
55 122 1
55 123 10
55 124 9
55 127 9
55 128 9
55 129 3
55 130 4
55 131 1
55 133 2
55 135 1
55 137 3
55 138 9
55 139 7
55 140 8
55 141 10
55 142 10
55 143 7
55 145 5
55 146 5
55 147 2
55 148 5
55 150 6
55 152 9
55 153 8
55 155 3
55 162 10
55 164 7
55 166 7
55 167 3
55 169 4
55 170 3
55 171 8
55 172 3
55 175 1
55 176 2
55 177 5
55 179 7
55 180 10
55 181 4
55 182 9
55 183 6
55 184 8
55 185 3
55 187 9
55 188 8
55 189 9
55 190 10
55 191 5
55 192 4
55 194 6
55 196 5
55 197 5
55 198 3
55 199 7
55 200 8
56 57 6
56 60 5
56 62 2
56 66 2
56 67 9
56 68 8
56 69 6
56 70 4
56 72 6
56 73 4
56 74 3
56 75 2
56 78 4
56 79 6
56 81 7
56 84 10
56 85 2
56 86 2
56 87 3
56 88 6
56 91 6
56 92 3
56 94 9
56 96 10
56 97 5
56 98 10
56 101 8
56 102 2
56 103 8
56 104 1
56 105 2
56 106 7
56 107 7
56 109 10
56 110 8
56 111 6
56 112 9
56 114 9
56 116 4
56 117 10
56 118 4
56 119 1
56 120 10
56 121 7
56 122 3
56 123 9
56 124 1
56 125 6
56 127 5
56 128 8
56 130 2
56 131 10
56 134 4
56 135 6
56 136 1
56 137 1
56 138 4
56 139 10
56 140 9
56 141 2
56 143 8
56 144 6
56 145 8
56 147 8
56 149 2
56 150 6
56 151 8
56 152 6
56 153 1
56 155 6
56 156 6
56 158 3
56 160 4
56 161 9
56 162 7
56 163 6
56 164 4
56 165 2
56 168 7
56 170 5
56 171 8
56 172 1
56 174 3
56 175 8
56 176 3
56 179 9
56 180 4
56 181 2
56 182 9
56 183 5
56 184 3
56 186 6
56 188 1
56 189 9
56 190 10
56 192 1
56 193 5
56 195 2
56 196 9
56 197 8
56 200 5
57 58 8
57 59 7
57 60 1
57 61 7
57 62 3
57 63 9
57 65 1
57 66 4
57 67 2
57 69 10
57 70 2
57 72 9
57 73 8
57 75 6
57 77 7
57 78 10
57 80 9
57 82 4
57 83 5
57 85 4
57 86 5
57 89 8
57 91 6
57 92 5
57 93 7
57 94 3
57 95 5
57 96 1
57 97 7
57 98 2
57 100 10
57 101 6
57 102 2
57 103 3
57 104 7
57 105 6
57 106 4
57 107 9
57 108 3
57 109 1
57 110 3
57 111 4
57 112 2
57 114 10
57 115 3
57 117 1
57 118 3
57 120 5
57 121 5
57 124 4
57 128 6
57 129 10
57 131 1
57 132 6
57 133 8
57 134 8
57 135 3
57 136 5
57 137 2
57 139 4
57 140 6
57 142 9
57 143 6
57 144 10
57 146 2
57 147 10
57 148 9
57 149 2
57 150 10
57 151 3
57 152 7
57 153 1
57 154 3
57 156 2
57 158 10
57 160 10
57 162 3
57 164 2
57 165 8
57 166 1
57 167 1
57 168 1
57 169 5
57 170 2
57 171 8
57 172 3
57 174 1
57 178 6
57 179 10
57 180 9
57 181 4
57 182 7
57 183 9
57 186 6
57 187 3
57 188 8
57 189 9
57 192 6
57 193 1
57 194 2
57 198 1
57 199 3
57 200 4
58 60 6
58 62 9
58 64 5
58 66 7
58 67 5
58 68 8
58 69 4
58 71 7
58 72 1
58 73 6
58 74 2
58 75 5
58 76 5
58 78 1
58 79 10
58 81 8
58 83 9
58 84 9
58 89 2
58 90 5
58 92 6
58 95 6
58 98 6
58 99 5
58 101 10
58 102 7
58 103 10
58 104 8
58 105 3
58 108 7
58 109 4
58 111 2
58 112 10
58 114 6
58 115 10
58 116 6
58 118 4
58 119 10
58 121 8
58 122 10
58 123 6
58 126 2
58 127 2
58 128 6
58 129 7
58 130 7
58 131 1
58 132 10
58 133 9
58 134 2
58 135 5
58 138 9
58 139 4
58 141 3
58 142 8
58 143 10
58 146 3
58 148 7
58 150 2
58 153 7
58 154 9
58 155 2
58 158 3
58 160 9
58 161 10
58 162 4
58 163 4
58 164 7
58 165 1
58 167 6
58 168 9
58 169 6
58 170 3
58 172 4
58 174 7
58 175 7
58 176 7
58 178 3
58 179 7
58 181 6
58 183 2
58 185 8
58 187 7
58 190 5
58 191 1
58 192 4
58 193 7
58 194 4
58 195 1
58 196 5
58 200 1
59 60 3
59 63 6
59 65 2
59 68 2
59 70 2
59 71 8
59 72 6
59 74 9
59 75 6
59 76 5
59 77 2
59 78 9
59 79 9
59 80 9
59 81 5
59 82 8
59 83 1
59 84 10
59 85 4
59 86 6
59 87 3
59 88 9
59 89 8
59 90 1
59 92 10
59 94 2
59 95 4
59 97 3
59 98 9
59 99 4
59 102 8
59 103 9
59 104 10
59 105 10
59 106 6
59 107 1
59 109 1
59 110 8
59 111 10
59 112 10
59 114 2
59 115 4
59 116 8
59 117 7
59 118 7
59 119 3
59 122 8
59 123 5
59 124 10
59 125 8
59 129 5
59 130 7
59 131 7
59 133 8
59 137 2
59 139 2
59 141 10
59 142 3
59 143 4
59 145 2
59 147 5
59 149 5
59 150 5
59 151 8
59 152 10
59 154 1
59 156 8
59 157 4
59 158 10
59 160 3
59 161 10
59 162 5
59 163 8
59 164 6
59 165 4
59 166 6
59 167 6
59 169 1
59 170 9
59 171 10
59 173 1
59 174 8
59 175 6
59 176 5
59 178 2
59 181 10
59 183 2
59 185 9
59 186 5
59 187 8
59 192 10
59 196 8
60 61 10
60 63 5
60 64 1
60 65 8
60 66 6
60 69 1
60 71 7
60 72 9
60 73 3
60 74 10
60 75 5
60 76 3
60 77 3
60 78 1
60 79 7
60 81 5
60 83 6
60 85 3
60 86 4
60 87 5
60 90 2
60 92 5
60 93 1
60 95 9
60 96 2
60 98 2
60 103 7
60 104 8
60 105 1
60 106 3
60 107 1
60 108 5
60 109 10
60 111 4
60 112 7
60 114 5
60 115 4
60 118 2
60 119 10
60 121 7
60 124 4
60 125 4
60 126 2
60 127 2
60 128 3
60 129 10
60 130 8
60 131 10
60 132 5
60 134 9
60 135 3
60 136 2
60 137 6
60 138 6
60 139 3
60 141 1
60 142 7
60 143 9
60 144 1
60 146 9
60 148 4
60 149 3
60 151 8
60 152 5
60 153 5
60 155 8
60 156 7
60 157 8
60 158 6
60 159 2
60 160 5
60 161 5
60 162 5
60 163 1
60 164 6
60 165 7
60 168 7
60 169 5
60 170 3
60 171 10
60 175 4
60 176 1
60 177 2
60 180 10
60 181 8
60 183 4
60 184 10
60 185 1
60 186 7
60 187 3
60 188 8
60 189 1
60 193 3
60 194 9
60 196 2
60 198 7
60 199 9
60 200 3
61 62 1
61 63 7
61 64 1
61 65 4
61 66 7
61 69 6
61 72 6
61 73 9
61 74 8
61 76 4
61 77 3
61 78 3
61 79 10
61 80 4
61 81 6
61 85 6
61 86 4
61 88 5
61 90 8
61 91 1
61 93 2
61 94 2
61 95 1
61 96 2
61 97 3
61 98 1
61 99 2
61 100 8
61 102 4
61 103 5
61 104 1
61 105 1
61 106 7
61 107 9
61 108 6
61 109 2
61 110 6
61 111 10
61 112 2
61 113 7
61 115 3
61 121 10
61 122 10
61 123 5
61 125 7
61 126 7
61 127 5
61 130 1
61 132 5
61 135 6
61 137 4
61 140 5
61 141 7
61 143 7
61 145 10
61 146 5
61 148 4
61 151 3
61 152 7
61 154 5
61 155 2
61 156 2
61 157 5
61 159 6
61 160 7
61 161 6
61 163 1
61 164 3
61 165 3
61 166 8
61 168 5
61 170 8
61 171 4
61 174 4
61 176 10
61 177 2
61 178 9
61 179 6
61 181 4
61 182 10
61 183 7
61 184 10
61 185 1
61 186 4
61 188 5
61 189 5
61 192 8
61 193 9
61 194 2
61 196 6
61 197 3
61 198 3
61 199 7
61 200 6
62 63 10
62 64 7
62 65 4
62 67 2
62 69 2
62 70 5
62 72 2
62 73 5
62 74 9
62 77 2
62 79 3
62 80 3
62 81 1
62 82 10
62 83 2
62 84 3
62 86 8
62 88 4
62 89 5
62 91 5
62 92 4
62 93 1
62 94 8
62 95 4
62 97 4
62 98 7
62 99 4
62 101 1
62 102 8
62 103 6
62 104 10
62 105 3
62 106 2
62 107 10
62 108 2
62 110 4
62 111 9
62 112 5
62 114 5
62 115 10
62 117 7
62 118 8
62 121 9
62 122 4
62 123 6
62 124 9
62 125 8
62 126 3
62 127 4
62 128 2
62 129 4
62 131 2
62 134 9
62 137 6
62 138 10
62 140 1
62 143 3
62 144 6
62 145 1
62 146 8
62 147 2
62 148 3
62 149 10
62 150 2
62 151 3
62 153 4
62 154 2
62 155 7
62 156 3
62 157 10
62 158 10
62 159 9
62 160 7
62 161 1
62 162 6
62 163 7
62 166 1
62 169 10
62 170 6
62 171 8
62 173 4
62 174 8
62 175 5
62 177 10
62 178 1
62 180 3
62 181 1
62 185 8
62 186 6
62 187 9
62 188 4
62 190 9
62 191 6
62 192 9
62 193 3
62 194 6
62 195 5
62 196 1
62 197 1
62 199 2
63 64 5
63 66 6
63 68 7
63 69 2
63 70 1
63 71 8
63 72 10
63 73 8
63 75 6
63 76 8
63 78 8
63 79 9
63 80 7
63 81 9
63 82 2
63 84 9
63 85 8
63 86 6
63 87 2
63 89 5
63 90 7
63 91 6
63 92 4
63 93 9
63 95 2
63 96 2
63 97 5
63 101 9
63 102 4
63 104 7
63 105 7
63 106 9
63 107 4
63 108 1
63 109 7
63 110 5
63 111 5
63 112 10
63 113 1
63 115 8
63 117 7
63 118 6
63 119 1
63 120 7
63 121 1
63 122 10
63 124 6
63 126 8
63 127 7
63 128 1
63 129 2
63 130 9
63 131 10
63 132 9
63 133 7
63 135 5
63 138 9
63 139 5
63 141 1
63 145 10
63 146 6
63 147 9
63 148 8
63 152 9
63 154 8
63 155 4
63 156 8
63 158 4
63 160 3
63 161 2
63 162 6
63 163 1
63 164 4
63 166 7
63 167 9
63 168 6
63 169 10
63 170 6
63 171 2
63 172 6
63 173 2
63 174 7
63 175 3
63 176 5
63 177 2
63 178 7
63 179 6
63 180 7
63 183 9
63 184 9
63 186 10
63 187 10
63 188 3
63 189 4
63 190 1
63 192 3
63 193 3
63 194 1
63 195 1
63 197 1
63 198 7
63 199 10
63 200 10
64 65 5
64 66 2
64 67 5
64 68 1
64 70 5
64 71 1
64 72 6
64 73 4
64 74 4
64 75 1
64 76 7
64 78 7
64 79 4
64 80 6
64 82 6
64 83 5
64 84 7
64 85 1
64 88 9
64 89 4
64 90 5
64 92 3
64 93 7
64 94 9
64 95 5
64 98 10
64 101 1
64 102 9
64 103 5
64 105 4
64 107 4
64 108 1
64 109 7
64 110 1
64 112 10
64 113 4
64 115 8
64 117 4
64 119 9
64 122 3
64 125 5
64 126 4
64 127 4
64 128 3
64 130 2
64 131 8
64 133 6
64 137 2
64 141 7
64 143 4
64 144 7
64 145 9
64 146 9
64 148 10
64 149 8
64 150 9
64 151 7
64 152 3
64 153 8
64 154 4
64 156 2
64 158 9
64 159 2
64 160 1
64 161 7
64 162 4
64 163 3
64 164 10
64 165 8
64 166 3
64 170 4
64 171 2
64 172 7
64 173 7
64 174 2
64 176 3
64 177 6
64 178 10
64 179 6
64 180 9
64 184 4
64 185 5
64 186 2
64 187 1
64 188 1
64 189 5
64 191 8
64 192 3
64 193 10
64 194 6
64 195 5
64 200 9
65 66 1
65 67 10
65 69 6
65 70 5
65 71 5
65 72 8
65 73 4
65 74 4
65 75 3
65 76 10
65 78 7
65 79 4
65 80 8
65 81 6
65 85 5
65 88 3
65 90 3
65 91 1
65 94 5
65 98 4
65 99 1
65 100 2
65 103 5
65 104 8
65 106 3
65 107 2
65 108 2
65 109 9
65 110 3
65 111 9
65 112 9
65 114 6
65 115 1
65 116 5
65 117 5
65 118 3
65 119 10
65 120 5
65 121 2
65 122 6
65 123 5
65 124 5
65 125 10
65 126 6
65 129 2
65 130 9
65 131 9
65 132 8
65 133 8
65 134 5
65 135 2
65 136 2
65 138 6
65 141 5
65 142 9
65 144 6
65 145 10
65 146 6
65 148 7
65 149 3
65 150 10
65 151 8
65 152 5
65 153 4
65 154 5
65 155 7
65 156 9
65 157 9
65 158 4
65 159 5
65 160 6
65 162 8
65 164 10
65 165 4
65 166 1
65 169 10
65 170 3
65 171 9
65 172 8
65 173 7
65 174 9
65 175 3
65 176 6
65 177 4
65 178 4
65 180 7
65 181 2
65 183 4
65 187 2
65 188 2
65 193 6
65 194 4
65 195 2
65 196 3
65 198 6
65 199 6
65 200 10
66 67 8
66 69 1
66 72 10
66 73 7
66 74 5
66 76 3
66 77 10
66 78 1
66 79 7
66 80 1
66 81 3
66 82 9
66 83 10
66 84 10
66 85 2
66 86 10
66 93 6
66 94 5
66 95 2
66 96 7
66 98 2
66 99 3
66 100 4
66 103 9
66 104 6
66 105 4
66 106 2
66 107 7
66 111 9
66 116 2
66 117 4
66 119 10
66 120 6
66 121 5
66 123 4
66 124 3
66 126 6
66 128 2
66 129 2
66 130 10
66 131 9
66 132 2
66 133 1
66 134 10
66 135 1
66 136 6
66 137 2
66 138 6
66 140 1
66 142 10
66 143 2
66 144 9
66 145 9
66 146 4
66 147 4
66 148 9
66 150 7
66 151 10
66 155 2
66 156 9
66 157 2
66 159 6
66 160 9
66 161 5
66 162 8
66 163 2
66 164 4
66 165 2
66 167 8
66 168 7
66 169 6
66 171 3
66 172 2
66 174 8
66 176 8
66 177 7
66 178 1
66 179 1
66 180 7
66 181 1
66 183 6
66 184 1
66 186 1
66 188 8
66 189 8
66 191 2
66 193 3
66 195 5
66 196 7
66 197 5
66 200 9
67 71 10
67 72 9
67 75 10
67 76 7
67 77 6
67 78 10
67 79 1
67 80 7
67 81 4
67 82 5
67 83 7
67 84 8
67 85 5
67 86 2
67 87 7
67 88 8
67 89 7
67 90 5
67 91 7
67 93 8
67 96 9
67 98 8
67 99 5
67 100 5
67 102 9
67 103 6
67 106 1
67 107 7
67 108 10
67 110 8
67 112 8
67 115 8
67 116 8
67 117 2
67 119 4
67 120 7
67 121 2
67 122 7
67 124 5
67 127 3
67 128 4
67 129 7
67 131 8
67 133 6
67 134 4
67 135 2
67 137 9
67 140 10
67 141 5
67 142 9
67 143 2
67 145 10
67 146 4
67 147 8
67 148 4
67 150 6
67 151 6
67 152 6
67 153 1
67 154 1
67 155 9
67 156 1
67 157 2
67 158 2
67 159 3
67 160 10
67 161 10
67 164 8
67 165 6
67 167 9
67 169 7
67 171 10
67 172 8
67 173 9
67 174 9
67 175 9
67 176 8
67 177 5
67 179 8
67 184 3
67 186 1
67 188 5
67 189 10
67 192 6
67 193 10
67 194 3
67 196 2
67 197 10
67 198 2
67 200 3
68 70 10
68 71 6
68 72 7
68 73 8
68 74 4
68 76 8
68 77 2
68 79 4
68 80 3
68 82 2
68 83 7
68 84 2
68 85 4
68 86 9
68 88 6
68 89 3
68 90 3
68 91 7
68 92 4
68 93 8
68 94 4
68 95 10
68 96 4
68 97 3
68 99 8
68 100 7
68 101 4
68 105 9
68 106 6
68 107 7
68 109 9
68 110 6
68 111 10
68 113 7
68 114 9
68 116 6
68 117 8
68 118 10
68 121 9
68 122 2
68 124 5
68 125 2
68 126 1
68 127 8
68 128 6
68 130 2
68 132 8
68 133 10
68 134 8
68 135 1
68 137 6
68 138 5
68 139 5
68 141 3
68 142 10
68 143 2
68 146 5
68 147 7
68 149 4
68 150 3
68 152 7
68 154 3
68 155 4
68 157 2
68 158 3
68 161 9
68 162 4
68 165 4
68 167 4
68 168 4
68 169 8
68 170 7
68 171 6
68 172 2
68 173 6
68 174 3
68 175 3
68 177 1
68 178 6
68 180 4
68 181 10
68 182 10
68 183 9
68 184 1
68 185 8
68 186 5
68 187 9
68 189 2
68 190 10
68 191 9
68 192 1
68 194 1
68 196 6
68 199 9
68 200 2
69 70 7
69 71 9
69 72 4
69 74 7
69 75 3
69 76 1
69 77 5
69 81 3
69 82 7
69 83 5
69 84 4
69 86 6
69 87 5
69 88 2
69 89 2
69 90 2
69 91 1
69 92 8
69 93 6
69 95 9
69 97 9
69 98 2
69 99 10
69 100 1
69 103 2
69 105 6
69 106 2
69 108 5
69 111 7
69 112 5
69 114 4
69 116 1
69 117 4
69 119 2
69 120 2
69 122 4
69 124 6
69 125 3
69 126 5
69 127 5
69 128 9
69 129 6
69 131 2
69 132 6
69 134 4
69 135 5
69 138 7
69 140 9
69 141 3
69 142 1
69 144 7
69 145 4
69 146 3
69 148 10
69 149 4
69 150 3
69 151 3
69 152 9
69 153 8
69 156 5
69 161 9
69 162 4
69 163 3
69 165 3
69 166 9
69 167 6
69 168 3
69 169 7
69 170 3
69 171 4
69 173 4
69 174 6
69 175 6
69 176 8
69 177 8
69 178 10
69 179 7
69 180 3
69 182 8
69 183 9
69 185 9
69 186 8
69 188 4
69 190 10
69 191 2
69 192 8
69 193 4
69 194 3
69 196 8
69 197 1
69 198 9
69 199 4
70 71 4
70 72 6
70 73 2
70 74 8
70 75 6
70 76 9
70 80 1
70 81 6
70 82 7
70 84 9
70 87 9
70 88 9
70 89 3
70 90 4
70 91 6
70 92 9
70 93 6
70 94 5
70 95 6
70 97 6
70 98 2
70 100 8
70 105 2
70 106 5
70 108 2
70 110 1
70 111 4
70 112 4
70 114 9
70 116 2
70 118 4
70 122 6
70 123 1
70 124 1
70 125 8
70 126 7
70 127 3
70 128 9
70 132 2
70 133 4
70 135 7
70 136 7
70 139 2
70 141 6
70 142 3
70 143 7
70 146 3
70 147 4
70 148 6
70 149 9
70 150 2
70 152 5
70 154 10
70 155 7
70 156 10
70 158 6
70 159 8
70 160 10
70 162 3
70 165 9
70 168 10
70 169 8
70 170 3
70 172 3
70 175 5
70 176 3
70 177 10
70 179 5
70 180 6
70 181 10
70 182 9
70 183 5
70 184 7
70 185 4
70 187 2
70 188 1
70 191 1
70 192 9
70 193 4
70 194 2
70 195 2
70 196 6
70 197 5
70 198 9
70 199 4
70 200 10
71 74 1
71 75 5
71 76 5
71 77 1
71 78 5
71 80 10
71 82 3
71 83 3
71 84 4
71 85 6
71 86 5
71 88 10
71 91 10
71 92 7
71 94 10
71 95 10
71 97 6
71 99 1
71 100 6
71 101 2
71 102 1
71 104 7
71 110 8
71 111 3
71 112 8
71 114 9
71 115 2
71 117 3
71 118 6
71 119 4
71 120 10
71 121 6
71 122 8
71 124 7
71 125 4
71 126 2
71 127 9
71 128 1
71 129 2
71 130 4
71 131 8
71 133 9
71 137 8
71 138 2
71 140 1
71 142 8
71 143 7
71 146 8
71 150 3
71 151 7
71 153 9
71 155 7
71 158 9
71 159 3
71 160 8
71 162 6
71 163 6
71 164 3
71 167 8
71 168 10
71 169 3
71 171 5
71 172 9
71 175 2
71 176 5
71 177 4
71 179 10
71 180 5
71 181 3
71 182 3
71 184 4
71 185 4
71 187 6
71 188 8
71 189 7
71 190 3
71 191 7
71 192 3
71 195 9
71 196 3
71 198 3
71 199 10
72 74 3
72 75 6
72 76 1
72 77 10
72 78 6
72 80 1
72 82 4
72 84 3
72 85 5
72 86 10
72 88 4
72 89 7
72 92 3
72 93 7
72 95 1
72 96 9
72 97 5
72 98 5
72 100 5
72 102 5
72 103 7
72 105 9
72 106 1
72 107 8
72 109 5
72 111 9
72 115 1
72 119 6
72 120 7
72 121 6
72 122 6
72 124 10
72 128 8
72 129 9
72 130 2
72 131 8
72 132 8
72 133 8
72 135 1
72 136 9
72 137 5
72 138 8
72 141 6
72 144 4
72 145 1
72 146 6
72 147 6
72 149 3
72 150 10
72 151 10
72 152 1
72 153 9
72 154 1
72 158 9
72 160 3
72 161 5
72 162 2
72 163 4
72 164 8
72 168 10
72 169 9
72 170 4
72 172 7
72 173 10
72 174 3
72 175 4
72 176 5
72 177 6
72 179 2
72 180 8
72 182 9
72 183 4
72 184 3
72 186 1
72 189 10
72 190 10
72 191 9
72 193 9
72 194 5
72 195 3
72 196 1
72 198 8
72 199 9
72 200 9
73 74 4
73 75 10
73 77 1
73 78 1
73 79 9
73 81 2
73 82 2
73 83 3
73 84 2
73 85 8
73 86 3
73 87 1
73 88 7
73 89 10
73 90 3
73 91 10
73 93 1
73 94 2
73 95 7
73 96 4
73 97 6
73 99 1
73 100 7
73 101 6
73 102 2
73 103 9
73 104 10
73 105 6
73 106 6
73 108 5
73 109 9
73 110 4
73 116 2
73 117 4
73 118 9
73 120 1
73 121 5
73 122 2
73 123 7
73 125 9
73 126 5
73 127 5
73 128 7
73 129 6
73 131 5
73 132 2
73 133 3
73 135 3
73 136 5
73 137 1
73 138 4
73 141 6
73 142 5
73 143 7
73 144 7
73 146 1
73 147 6
73 150 7
73 151 3
73 152 4
73 153 4
73 154 1
73 155 10
73 156 1
73 157 10
73 158 3
73 159 7
73 160 3
73 161 4
73 162 6
73 163 3
73 164 9
73 166 7
73 167 7
73 168 5
73 169 4
73 170 10
73 171 5
73 172 8
73 173 3
73 174 7
73 176 7
73 177 2
73 178 9
73 179 9
73 180 1
73 181 2
73 183 2
73 186 2
73 187 10
73 188 9
73 191 5
73 192 5
73 193 9
73 194 9
73 195 2
73 197 8
73 198 6
73 199 8
74 75 3
74 76 4
74 77 1
74 78 7
74 79 4
74 80 8
74 81 8
74 82 6
74 83 4
74 84 4
74 85 3
74 86 9
74 87 10
74 90 10
74 91 4
74 92 8
74 93 5
74 95 1
74 96 9
74 97 10
74 98 1
74 99 3
74 100 8
74 101 9
74 102 9
74 103 10
74 104 8
74 106 2
74 108 7
74 110 5
74 111 6
74 112 4
74 113 4
74 115 7
74 117 3
74 118 5
74 119 9
74 121 9
74 122 6
74 123 7
74 124 8
74 125 9
74 126 6
74 128 1
74 129 8
74 130 1
74 131 7
74 133 2
74 134 6
74 135 6
74 137 6
74 139 3
74 140 8
74 141 7
74 142 9
74 143 8
74 145 3
74 146 3
74 147 6
74 148 10
74 149 9
74 150 5
74 151 2
74 152 4
74 153 10
74 154 10
74 155 10
74 156 10
74 157 8
74 160 1
74 161 4
74 162 6
74 163 5
74 167 5
74 168 4
74 172 8
74 173 6
74 174 8
74 176 2
74 178 7
74 181 3
74 182 9
74 185 3
74 186 10
74 188 1
74 190 8
74 192 7
74 193 2
74 196 3
74 197 4
74 198 4
74 199 4
74 200 6
75 76 5
75 77 6
75 80 6
75 82 4
75 83 4
75 85 2
75 86 5
75 87 10
75 88 4
75 89 1
75 90 2
75 91 8
75 92 9
75 93 5
75 95 10
75 96 2
75 97 9
75 98 5
75 99 10
75 100 4
75 101 5
75 104 10
75 106 5
75 107 1
75 111 8
75 112 6
75 113 5
75 115 1
75 116 7
75 117 2
75 118 2
75 120 7
75 121 7
75 123 10
75 125 7
75 127 9
75 128 1
75 129 3
75 130 7
75 131 2
75 132 2
75 133 6
75 134 7
75 135 6
75 136 10
75 139 7
75 140 2
75 141 1
75 143 10
75 144 2
75 145 8
75 147 5
75 148 3
75 149 8
75 150 7
75 151 9
75 152 7
75 153 9
75 154 5
75 156 2
75 157 10
75 160 8
75 162 3
75 163 10
75 164 4
75 165 5
75 166 7
75 167 3
75 168 4
75 169 8
75 170 5
75 171 7
75 173 6
75 174 5
75 176 7
75 178 6
75 179 4
75 180 6
75 182 7
75 183 6
75 186 9
75 187 1
75 188 10
75 190 10
75 191 9
75 192 10
75 194 1
75 198 7
75 199 3
75 200 5
76 78 10
76 80 4
76 83 3
76 84 6
76 85 8
76 86 7
76 87 9
76 88 1
76 90 1
76 91 9
76 92 9
76 93 1
76 95 7
76 96 1
76 97 10
76 100 1
76 101 4
76 102 10
76 103 9
76 104 2
76 105 1
76 106 5
76 107 5
76 108 3
76 109 10
76 111 2
76 112 3
76 114 6
76 115 2
76 117 8
76 118 10
76 119 2
76 120 7
76 121 8
76 122 8
76 123 7
76 124 3
76 125 7
76 127 3
76 128 1
76 129 4
76 130 6
76 131 10
76 132 7
76 134 7
76 135 10
76 138 2
76 139 2
76 140 6
76 141 6
76 142 2
76 143 5
76 145 2
76 146 10
76 147 7
76 148 3
76 151 8
76 152 2
76 153 2
76 155 3
76 157 7
76 159 1
76 160 9
76 161 8
76 162 2
76 164 6
76 165 10
76 166 2
76 168 4
76 169 10
76 171 10
76 172 1
76 173 9
76 174 5
76 175 8
76 176 9
76 177 8
76 178 10
76 179 5
76 180 3
76 181 8
76 183 7
76 184 6
76 185 9
76 186 7
76 187 10
76 188 7
76 190 10
76 191 2
76 192 10
76 193 8
76 194 1
76 195 7
76 196 6
76 197 7
76 198 10
76 200 9
77 80 3
77 81 4
77 82 9
77 84 5
77 86 4
77 87 7
77 88 9
77 91 9
77 92 10
77 93 5
77 94 10
77 96 5
77 97 3
77 98 8
77 99 7
77 100 10
77 101 5
77 102 1
77 104 3
77 105 8
77 106 7
77 108 5
77 110 8
77 111 7
77 112 4
77 113 5
77 114 4
77 115 10
77 118 2
77 119 6
77 120 7
77 121 6
77 122 1
77 125 6
77 126 2
77 127 3
77 130 6
77 131 3
77 132 8
77 133 8
77 134 2
77 135 5
77 136 9
77 138 7
77 140 8
77 142 8
77 144 2
77 145 5
77 147 2
77 149 5
77 150 1
77 151 7
77 152 4
77 153 5
77 156 8
77 159 10
77 160 6
77 161 10
77 163 6
77 164 1
77 166 6
77 168 2
77 169 5
77 170 10
77 172 6
77 174 6
77 175 5
77 176 1
77 178 10
77 179 7
77 180 4
77 181 2
77 182 5
77 183 10
77 184 8
77 185 6
77 186 9
77 188 7
77 189 2
77 190 9
77 191 10
77 192 4
77 193 6
77 195 9
77 196 10
77 197 8
77 198 5
77 200 6
78 79 8
78 80 1
78 81 2
78 82 6
78 84 3
78 85 1
78 86 4
78 87 3
78 88 4
78 89 9
78 91 10
78 92 4
78 93 7
78 95 5
78 97 3
78 98 3
78 99 8
78 100 7
78 101 1
78 102 5
78 104 10
78 106 5
78 107 2
78 108 3
78 109 3
78 110 7
78 111 1
78 112 4
78 113 9
78 114 6
78 115 1
78 116 2
78 120 5
78 121 5
78 123 10
78 126 1
78 127 6
78 128 6
78 129 7
78 130 8
78 131 3
78 132 9
78 134 10
78 135 10
78 136 9
78 137 3
78 138 2
78 139 10
78 140 6
78 141 2
78 142 5
78 144 4
78 145 10
78 146 2
78 147 7
78 148 5
78 151 9
78 152 4
78 154 6
78 155 4
78 156 6
78 158 8
78 159 6
78 160 1
78 161 5
78 162 1
78 163 9
78 164 3
78 165 9
78 166 10
78 167 10
78 168 4
78 169 3
78 170 9
78 171 9
78 173 2
78 175 6
78 177 3
78 178 7
78 179 1
78 180 9
78 181 9
78 182 10
78 184 9
78 185 6
78 186 6
78 187 4
78 188 1
78 190 4
78 191 7
78 193 2
78 195 10
78 197 3
78 198 8
78 199 8
78 200 1
79 80 7
79 81 9
79 83 8
79 84 10
79 85 1
79 88 8
79 90 4
79 92 2
79 93 5
79 94 8
79 95 8
79 96 4
79 97 7
79 98 6
79 100 6
79 101 3
79 102 1
79 103 6
79 104 8
79 105 6
79 106 5
79 108 3
79 109 1
79 110 10
79 111 10
79 112 8
79 113 10
79 115 7
79 116 10
79 117 6
79 118 7
79 119 6
79 120 4
79 121 6
79 123 10
79 124 9
79 125 5
79 126 10
79 127 5
79 128 5
79 129 2
79 130 2
79 132 5
79 133 7
79 134 9
79 135 1
79 136 9
79 138 3
79 139 1
79 140 8
79 141 10
79 143 3
79 144 5
79 145 1
79 146 7
79 147 9
79 149 7
79 152 10
79 153 8
79 154 7
79 155 7
79 156 6
79 157 6
79 159 2
79 161 5
79 162 6
79 164 6
79 165 3
79 166 8
79 167 5
79 168 3
79 169 2
79 170 3
79 171 7
79 173 1
79 174 7
79 176 8
79 177 1
79 178 7
79 180 1
79 181 2
79 182 9
79 183 2
79 184 5
79 185 6
79 186 7
79 187 6
79 188 1
79 189 7
79 192 3
79 193 8
79 194 5
79 195 3
79 197 5
79 198 8
79 199 8
79 200 6
80 81 6
80 82 7
80 83 9
80 85 8
80 87 4
80 88 3
80 89 7
80 92 5
80 93 8
80 94 6
80 95 9
80 98 3
80 101 4
80 102 9
80 104 6
80 105 3
80 106 7
80 107 2
80 108 6
80 109 2
80 111 6
80 112 3
80 113 5
80 114 5
80 115 4
80 118 1
80 119 6
80 121 7
80 122 5
80 123 3
80 124 6
80 125 1
80 128 7
80 129 4
80 133 4
80 134 6
80 136 7
80 140 2
80 142 3
80 143 8
80 144 4
80 146 10
80 150 6
80 151 1
80 153 1
80 154 6
80 155 9
80 157 3
80 159 4
80 160 6
80 161 1
80 162 10
80 163 4
80 164 8
80 167 10
80 168 10
80 169 7
80 171 7
80 172 8
80 174 1
80 175 3
80 178 3
80 180 5
80 181 4
80 187 6
80 188 8
80 189 9
80 190 2
80 191 4
80 194 1
80 195 4
80 196 6
80 197 5
80 198 9
80 199 5
81 82 7
81 83 9
81 84 9
81 86 7
81 87 3
81 88 10
81 91 2
81 92 10
81 94 2
81 95 4
81 97 6
81 99 10
81 100 3
81 101 8
81 102 1
81 103 2
81 104 3
81 105 4
81 106 10
81 107 4
81 108 7
81 109 9
81 110 2
81 111 5
81 112 10
81 113 9
81 117 7
81 119 3
81 120 8
81 121 8
81 122 4
81 123 5
81 125 4
81 126 7
81 127 3
81 128 2
81 129 9
81 130 3
81 131 8
81 133 4
81 134 6
81 136 2
81 137 3
81 138 10
81 141 1
81 142 3
81 143 9
81 145 1
81 146 3
81 148 7
81 152 2
81 155 7
81 156 7
81 157 10
81 159 8
81 160 5
81 162 7
81 163 7
81 165 5
81 166 6
81 167 2
81 169 10
81 173 9
81 174 7
81 175 9
81 176 5
81 177 7
81 178 10
81 179 6
81 182 5
81 183 10
81 184 9
81 186 10
81 188 3
81 189 4
81 192 2
81 193 3
81 194 4
81 195 10
81 196 10
81 197 10
81 198 5
82 83 9
82 84 5
82 85 8
82 86 4
82 88 1
82 89 3
82 90 8
82 91 3
82 92 3
82 93 2
82 98 8
82 100 8
82 101 9
82 102 8
82 103 3
82 105 4
82 106 1
82 107 7
82 108 9
82 109 10
82 110 6
82 111 1
82 112 1
82 113 6
82 114 3
82 116 6
82 117 3
82 118 7
82 119 1
82 120 8
82 121 5
82 122 1
82 123 6
82 124 10
82 127 7
82 128 5
82 129 7
82 132 5
82 135 4
82 136 8
82 137 8
82 138 5
82 140 5
82 141 10
82 142 7
82 143 8
82 144 6
82 147 9
82 149 9
82 150 7
82 152 6
82 153 3
82 154 6
82 155 9
82 156 2
82 157 9
82 158 5
82 159 2
82 160 7
82 161 3
82 163 8
82 165 1
82 166 5
82 167 4
82 169 3
82 170 9
82 173 1
82 174 2
82 175 2
82 176 8
82 177 8
82 178 2
82 180 5
82 181 1
82 183 3
82 184 6
82 185 8
82 189 8
82 190 5
82 191 1
82 193 4
82 195 4
82 199 2
82 200 7
83 84 2
83 85 9
83 86 2
83 87 2
83 88 6
83 89 4
83 90 10
83 92 10
83 93 3
83 94 1
83 95 6
83 96 4
83 97 7
83 99 8
83 100 9
83 101 3
83 102 7
83 104 9
83 105 6
83 107 4
83 108 4
83 109 2
83 112 8
83 113 8
83 114 2
83 116 10
83 117 2
83 118 2
83 119 10
83 120 4
83 122 1
83 123 2
83 124 5
83 126 9
83 127 7
83 128 10
83 129 6
83 130 9
83 134 1
83 136 6
83 138 5
83 139 3
83 141 7
83 142 6
83 144 10
83 148 10
83 150 6
83 153 5
83 154 2
83 155 1
83 158 9
83 159 7
83 160 10
83 162 6
83 163 3
83 164 7
83 165 6
83 167 10
83 168 2
83 170 7
83 172 3
83 173 6
83 174 1
83 175 5
83 176 4
83 177 2
83 178 7
83 179 8
83 180 8
83 182 9
83 183 3
83 184 3
83 186 7
83 188 8
83 190 4
83 191 2
83 192 8
83 195 1
83 196 5
83 197 7
83 198 9
83 199 4
84 85 9
84 87 10
84 88 2
84 89 5
84 92 10
84 93 4
84 94 7
84 95 5
84 99 6
84 100 8
84 101 5
84 102 3
84 103 10
84 105 7
84 107 10
84 109 6
84 111 2
84 112 8
84 113 5
84 115 7
84 117 6
84 121 1
84 123 10
84 125 9
84 126 4
84 127 8
84 128 10
84 129 1
84 130 7
84 132 3
84 133 3
84 134 7
84 135 8
84 136 4
84 138 5
84 139 3
84 140 7
84 141 8
84 142 10
84 143 2
84 144 10
84 145 2
84 146 10
84 147 8
84 150 3
84 151 10
84 153 1
84 154 1
84 157 5
84 158 4
84 159 1
84 160 8
84 161 10
84 163 10
84 165 10
84 166 5
84 167 10
84 168 8
84 170 7
84 171 6
84 172 4
84 173 1
84 174 6
84 175 3
84 176 9
84 177 9
84 179 2
84 180 9
84 181 5
84 182 6
84 183 3
84 184 4
84 185 1
84 186 9
84 188 7
84 189 9
84 190 2
84 191 10
84 192 10
84 196 4
84 197 3
84 198 10
85 86 8
85 88 3
85 89 9
85 90 9
85 91 8
85 94 5
85 96 1
85 97 8
85 98 10
85 99 3
85 100 10
85 102 8
85 104 9
85 105 6
85 106 9
85 107 10
85 108 4
85 109 7
85 110 8
85 111 2
85 112 5
85 113 5
85 114 6
85 115 10
85 116 2
85 117 8
85 118 6
85 119 8
85 120 6
85 123 1
85 124 5
85 126 8
85 127 7
85 129 6
85 130 8
85 132 10
85 135 9
85 136 6
85 138 1
85 139 2
85 141 7
85 145 6
85 147 10
85 148 5
85 149 3
85 150 8
85 152 2
85 153 1
85 154 8
85 155 2
85 157 4
85 158 1
85 161 5
85 162 3
85 163 10
85 164 10
85 165 3
85 166 10
85 167 10
85 168 6
85 169 10
85 170 2
85 171 9
85 172 10
85 173 10
85 174 9
85 176 9
85 178 10
85 180 6
85 181 6
85 183 8
85 184 8
85 185 2
85 186 1
85 189 1
85 190 9
85 191 7
85 193 8
85 195 7
85 196 3
85 197 5
85 199 7
85 200 5
86 87 1
86 88 4
86 90 6
86 92 4
86 93 8
86 94 1
86 95 1
86 98 5
86 99 6
86 100 8
86 101 4
86 102 6
86 103 4
86 104 8
86 106 6
86 107 4
86 109 4
86 110 5
86 113 6
86 115 8
86 117 4
86 118 9
86 119 1
86 120 2
86 123 8
86 124 10
86 125 5
86 126 8
86 130 5
86 133 3
86 135 3
86 136 7
86 137 6
86 138 1
86 139 7
86 140 2
86 144 3
86 145 9
86 146 4
86 148 5
86 149 5
86 150 6
86 151 10
86 152 1
86 153 5
86 154 6
86 155 7
86 157 2
86 158 10
86 159 7
86 160 9
86 161 9
86 162 1
86 164 10
86 165 5
86 168 5
86 169 7
86 170 5
86 171 9
86 173 1
86 174 9
86 175 1
86 177 2
86 178 10
86 180 6
86 181 4
86 182 4
86 183 2
86 185 6
86 187 4
86 188 1
86 189 2
86 191 5
86 193 5
86 194 5
86 195 4
86 196 3
86 197 9
86 198 7
86 199 9
86 200 4
87 91 4
87 92 1
87 93 6
87 94 4
87 95 6
87 96 10
87 99 2
87 100 9
87 102 8
87 105 3
87 106 6
87 107 9
87 109 7
87 110 4
87 112 5
87 115 10
87 116 8
87 119 4
87 120 5
87 121 9
87 122 10
87 123 9
87 124 1
87 125 9
87 126 6
87 127 3
87 128 6
87 133 4
87 134 5
87 135 10
87 136 1
87 137 4
87 139 6
87 140 3
87 141 5
87 143 2
87 146 4
87 148 2
87 149 5
87 151 8
87 152 5
87 153 8
87 154 5
87 155 7
87 156 7
87 157 1
87 158 7
87 160 3
87 161 2
87 163 9
87 164 9
87 166 8
87 168 10
87 169 3
87 170 5
87 172 5
87 173 10
87 175 3
87 177 10
87 178 3
87 179 9
87 182 3
87 185 10
87 186 10
87 187 1
87 189 8
87 190 7
87 191 3
87 192 10
87 195 10
87 196 6
87 197 4
87 198 3
87 200 9
88 89 7
88 93 3
88 94 2
88 95 3
88 96 5
88 97 9
88 99 7
88 100 2
88 103 2
88 104 9
88 105 8
88 106 4
88 107 8
88 109 8
88 111 7
88 114 1
88 115 5
88 116 1
88 117 6
88 119 6
88 120 6
88 121 7
88 122 7
88 128 6
88 129 1
88 130 9
88 131 5
88 132 2
88 133 2
88 134 8
88 135 4
88 136 7
88 137 1
88 139 10
88 141 4
88 144 4
88 145 7
88 146 5
88 147 3
88 148 9
88 149 5
88 151 6
88 152 10
88 154 7
88 155 7
88 156 4
88 157 8
88 158 10
88 159 4
88 160 7
88 161 10
88 163 8
88 164 4
88 166 7
88 167 6
88 168 3
88 169 6
88 171 7
88 172 6
88 174 3
88 175 3
88 176 6
88 178 4
88 182 7
88 183 8
88 184 8
88 185 6
88 186 10
88 187 1
88 188 10
88 189 3
88 191 8
88 192 2
88 193 6
88 194 9
88 196 7
88 197 3
88 198 7
88 199 1
89 91 3
89 94 10
89 95 4
89 98 1
89 99 6
89 100 2
89 101 10
89 102 7
89 106 1
89 108 7
89 109 6
89 110 1
89 111 1
89 113 3
89 114 9
89 115 5
89 116 5
89 118 4
89 121 8
89 122 8
89 123 6
89 125 4
89 126 5
89 128 2
89 129 5
89 130 10
89 131 10
89 132 10
89 133 9
89 134 2
89 135 5
89 137 10
89 138 9
89 139 8
89 140 6
89 141 9
89 146 5
89 148 4
89 149 6
89 150 7
89 151 9
89 152 4
89 153 10
89 154 8
89 155 9
89 157 9
89 158 2
89 159 10
89 161 3
89 163 8
89 164 10
89 165 6
89 167 6
89 168 10
89 169 1
89 170 1
89 171 1
89 173 4
89 174 6
89 175 8
89 176 3
89 177 8
89 178 9
89 179 8
89 180 4
89 181 10
89 182 2
89 183 10
89 184 4
89 185 3
89 186 3
89 187 3
89 188 2
89 189 1
89 190 8
89 191 6
89 192 3
89 195 2
89 196 7
89 197 1
89 200 4
90 91 5
90 92 2
90 93 1
90 95 9
90 97 4
90 98 3
90 99 10
90 100 8
90 101 3
90 102 3
90 104 3
90 105 10
90 107 1
90 109 10
90 110 3
90 113 5
90 115 4
90 117 8
90 118 7
90 121 7
90 123 10
90 125 10
90 128 3
90 130 5
90 131 3
90 132 10
90 133 3
90 134 1
90 137 9
90 139 5
90 140 9
90 141 4
90 142 5
90 144 3
90 145 8
90 147 10
90 150 4
90 151 5
90 152 6
90 155 3
90 156 6
90 157 4
90 159 1
90 160 4
90 163 1
90 164 6
90 165 8
90 166 3
90 167 1
90 169 7
90 170 1
90 171 1
90 172 5
90 174 5
90 175 9
90 176 4
90 177 1
90 178 1
90 179 5
90 180 7
90 184 4
90 186 10
90 188 9
90 193 1
90 200 10
91 92 10
91 93 2
91 94 6
91 95 9
91 96 4
91 97 7
91 99 7
91 101 7
91 103 3
91 105 9
91 107 7
91 108 1
91 109 7
91 113 6
91 114 1
91 115 7
91 116 7
91 118 2
91 119 4
91 121 8
91 125 3
91 126 9
91 128 10
91 129 1
91 132 8
91 133 6
91 136 2
91 137 10
91 138 3
91 140 9
91 141 3
91 142 3
91 143 5
91 144 4
91 146 10
91 147 1
91 149 9
91 151 2
91 153 4
91 154 5
91 155 2
91 156 1
91 158 4
91 160 3
91 161 9
91 164 10
91 165 1
91 167 4
91 168 2
91 169 8
91 170 1
91 171 4
91 172 3
91 173 3
91 174 1
91 175 1
91 176 5
91 177 5
91 178 2
91 179 8
91 180 1
91 181 6
91 183 7
91 184 9
91 185 1
91 186 9
91 188 5
91 189 5
91 190 6
91 191 7
91 192 4
91 193 6
91 194 1
91 195 3
91 196 10
91 197 4
91 199 2
91 200 6
92 93 9
92 95 5
92 96 8
92 97 3
92 99 6
92 101 8
92 102 5
92 104 4
92 105 7
92 107 8
92 108 10
92 109 9
92 110 1
92 112 10
92 113 7
92 114 1
92 115 9
92 116 2
92 117 5
92 119 7
92 120 1
92 123 2
92 124 2
92 127 7
92 128 6
92 129 6
92 130 5
92 132 10
92 133 1
92 134 2
92 135 4
92 137 7
92 138 3
92 139 5
92 140 8
92 141 1
92 142 5
92 143 7
92 144 4
92 146 1
92 147 4
92 148 4
92 149 10
92 150 8
92 155 10
92 157 6
92 159 1
92 160 5
92 163 1
92 164 3
92 167 1
92 168 6
92 169 7
92 170 5
92 172 5
92 173 6
92 174 10
92 175 10
92 176 5
92 177 3
92 178 10
92 179 4
92 181 5
92 182 2
92 183 5
92 185 3
92 187 6
92 188 1
92 189 8
92 190 10
92 191 9
92 192 6
92 194 7
92 197 10
92 198 9
92 199 8
92 200 1
93 94 1
93 96 2
93 97 10
93 98 9
93 99 5
93 100 10
93 101 9
93 102 10
93 103 1
93 104 7
93 105 9
93 106 5
93 107 8
93 108 8
93 109 5
93 110 10
93 112 5
93 113 1
93 114 3
93 115 5
93 116 4
93 117 10
93 118 1
93 119 4
93 120 4
93 121 8
93 122 2
93 123 7
93 126 7
93 127 8
93 129 10
93 131 8
93 132 1
93 134 9
93 135 3
93 138 1
93 141 10
93 142 7
93 143 6
93 144 8
93 146 9
93 147 1
93 148 9
93 149 5
93 150 6
93 151 2
93 152 4
93 153 8
93 154 6
93 155 6
93 157 5
93 158 2
93 159 5
93 160 3
93 162 8
93 163 5
93 165 6
93 167 10
93 168 4
93 169 5
93 170 4
93 172 9
93 175 1
93 177 5
93 178 1
93 179 1
93 181 8
93 183 5
93 184 7
93 185 6
93 189 8
93 190 9
93 191 7
93 192 4
93 193 5
93 194 5
93 195 9
93 196 10
93 198 4
93 200 2
94 95 10
94 98 8
94 99 7
94 101 5
94 104 8
94 106 8
94 107 6
94 109 6
94 110 8
94 111 5
94 112 9
94 113 4
94 114 10
94 115 6
94 116 1
94 119 8
94 120 5
94 123 9
94 125 7
94 126 6
94 127 6
94 128 2
94 129 10
94 133 6
94 134 8
94 135 6
94 136 4
94 137 6
94 138 4
94 141 2
94 143 1
94 144 5
94 145 10
94 146 3
94 147 5
94 148 8
94 150 10
94 152 5
94 153 2
94 154 8
94 156 1
94 157 7
94 160 3
94 162 7
94 163 1
94 164 7
94 165 7
94 168 3
94 169 1
94 170 5
94 171 3
94 175 7
94 176 9
94 180 8
94 183 9
94 184 10
94 185 10
94 186 8
94 187 10
94 188 6
94 189 7
94 190 7
94 192 6
94 193 7
94 195 8
94 196 4
94 197 8
94 198 3
94 199 6
94 200 4
95 97 5
95 99 9
95 101 6
95 102 7
95 103 2
95 104 6
95 107 2
95 108 1
95 109 9
95 110 4
95 111 8
95 112 7
95 113 7
95 114 1
95 115 4
95 116 1
95 117 3
95 120 7
95 121 10
95 122 1
95 127 9
95 128 1
95 131 8
95 133 4
95 135 2
95 136 2
95 137 10
95 138 1
95 139 4
95 140 2
95 141 5
95 142 7
95 143 7
95 144 5
95 145 6
95 146 6
95 147 10
95 148 3
95 149 3
95 150 2
95 151 9
95 153 1
95 155 6
95 156 10
95 157 2
95 158 7
95 159 9
95 160 10
95 162 5
95 163 2
95 164 3
95 165 4
95 166 5
95 168 1
95 169 8
95 170 7
95 171 5
95 172 8
95 173 3
95 175 6
95 178 7
95 179 1
95 180 10
95 182 6
95 184 7
95 185 7
95 186 7
95 187 3
95 189 8
95 190 5
95 192 8
95 193 2
95 195 10
95 196 7
95 198 3
95 200 7
96 97 9
96 98 10
96 100 3
96 101 4
96 104 9
96 106 3
96 110 7
96 111 3
96 112 7
96 113 5
96 114 9
96 115 3
96 118 3
96 119 2
96 120 1
96 121 9
96 122 7
96 123 1
96 124 3
96 125 9
96 126 5
96 127 7
96 128 2
96 129 6
96 130 5
96 131 3
96 132 6
96 133 7
96 134 3
96 136 9
96 138 8
96 139 2
96 140 4
96 141 6
96 143 3
96 144 10
96 145 9
96 147 1
96 148 2
96 149 10
96 151 10
96 154 6
96 155 4
96 156 1
96 158 3
96 160 8
96 161 7
96 162 3
96 164 9
96 165 4
96 166 3
96 167 5
96 168 4
96 169 2
96 170 6
96 171 8
96 172 10
96 174 3
96 175 3
96 176 2
96 178 7
96 179 3
96 180 6
96 183 9
96 184 4
96 185 3
96 186 7
96 187 6
96 188 6
96 189 8
96 190 3
96 191 1
96 195 5
96 197 6
96 198 4
96 199 1
96 200 1
97 98 7
97 99 8
97 100 5
97 102 5
97 103 10
97 104 3
97 105 8
97 106 1
97 107 2
97 108 7
97 111 1
97 113 7
97 114 6
97 115 2
97 116 7
97 119 6
97 120 10
97 121 8
97 122 3
97 124 9
97 125 7
97 126 8
97 128 6
97 129 9
97 130 10
97 132 5
97 133 10
97 134 4
97 135 7
97 136 6
97 137 8
97 139 1
97 142 9
97 143 9
97 144 5
97 146 5
97 149 9
97 151 10
97 152 3
97 155 1
97 156 10
97 159 9
97 160 10
97 161 1
97 165 4
97 167 4
97 168 5
97 169 5
97 170 5
97 172 1
97 174 1
97 175 7
97 176 5
97 177 9
97 178 8
97 180 1
97 181 3
97 182 2
97 183 4
97 184 2
97 186 4
97 187 7
97 188 8
97 189 9
97 190 2
97 193 5
97 196 7
97 197 7
97 198 5
97 199 3
98 99 1
98 100 4
98 101 10
98 102 9
98 103 10
98 104 9
98 105 5
98 106 9
98 107 1
98 108 9
98 110 3
98 111 3
98 113 5
98 114 5
98 115 10
98 116 10
98 117 5
98 118 9
98 120 7
98 121 7
98 123 10
98 124 3
98 126 6
98 128 10
98 129 1
98 131 1
98 132 3
98 133 2
98 135 3
98 137 2
98 138 8
98 139 1
98 141 9
98 142 10
98 143 10
98 144 6
98 145 7
98 146 6
98 149 7
98 150 3
98 152 1
98 153 1
98 155 5
98 156 10
98 157 6
98 158 4
98 161 6
98 162 8
98 163 6
98 164 2
98 166 4
98 168 10
98 170 5
98 171 2
98 172 8
98 175 3
98 177 7
98 178 7
98 179 7
98 180 10
98 182 7
98 183 3
98 184 3
98 185 9
98 186 5
98 187 1
98 190 5
98 191 3
98 192 4
98 193 2
98 195 2
98 198 10
98 199 6
99 100 2
99 102 8
99 103 6
99 105 10
99 106 2
99 107 5
99 110 8
99 112 1
99 113 6
99 114 7
99 116 6
99 117 4
99 120 6
99 121 7
99 122 2
99 123 7
99 124 9
99 125 6
99 126 10
99 127 3
99 128 8
99 130 9
99 133 9
99 134 2
99 135 7
99 136 5
99 139 10
99 140 3
99 141 9
99 147 1
99 148 3
99 151 5
99 153 8
99 154 5
99 157 4
99 158 1
99 159 5
99 160 1
99 161 9
99 162 5
99 164 3
99 166 1
99 167 6
99 168 3
99 170 1
99 171 2
99 172 3
99 173 6
99 174 6
99 175 2
99 176 4
99 177 7
99 178 6
99 179 2
99 180 9
99 181 6
99 182 8
99 183 3
99 184 4
99 185 10
99 186 2
99 187 6
99 188 3
99 189 6
99 190 3
99 191 4
99 192 1
99 194 8
99 195 8
99 196 7
99 198 5
99 199 7
99 200 5
100 101 9
100 102 7
100 104 10
100 105 7
100 108 10
100 110 4
100 111 1
100 113 6
100 114 5
100 115 8
100 116 7
100 117 6
100 120 10
100 121 6
100 123 2
100 124 1
100 126 9
100 127 2
100 129 8
100 130 7
100 131 7
100 132 2
100 133 6
100 135 8
100 136 10
100 137 5
100 139 10
100 142 4
100 143 1
100 148 4
100 150 6
100 151 3
100 152 4
100 154 9
100 155 4
100 156 3
100 157 9
100 159 4
100 161 2
100 162 2
100 163 7
100 164 5
100 166 10
100 167 10
100 168 1
100 169 6
100 170 8
100 171 9
100 172 6
100 175 7
100 177 7
100 178 2
100 182 6
100 183 6
100 184 1
100 185 7
100 186 7
100 187 10
100 188 8
100 190 9
100 193 10
100 194 2
100 195 10
100 196 6
100 197 8
100 198 2
100 199 1
101 102 7
101 104 7
101 105 2
101 106 7
101 107 10
101 108 10
101 109 4
101 110 2
101 113 1
101 114 4
101 115 7
101 116 8
101 118 1
101 120 2
101 122 2
101 123 10
101 125 4
101 126 8
101 127 5
101 128 7
101 129 8
101 130 9
101 131 4
101 132 2
101 134 7
101 135 4
101 137 3
101 138 1
101 141 10
101 142 3
101 143 1
101 145 6
101 147 6
101 148 7
101 149 9
101 151 1
101 153 5
101 155 4
101 156 6
101 157 5
101 159 2
101 160 6
101 163 1
101 164 5
101 165 2
101 166 5
101 167 6
101 168 1
101 170 7
101 171 5
101 172 3
101 174 8
101 175 8
101 177 4
101 178 7
101 180 3
101 181 2
101 182 3
101 184 8
101 185 3
101 186 3
101 187 4
101 190 5
101 191 8
101 193 7
101 194 10
101 195 2
101 197 7
101 199 1
101 200 4
102 103 2
102 104 10
102 106 10
102 109 5
102 110 4
102 111 4
102 113 5
102 115 10
102 119 10
102 122 2
102 123 6
102 124 9
102 125 3
102 126 2
102 129 8
102 130 10
102 131 9
102 133 2
102 135 4
102 138 6
102 141 7
102 144 4
102 145 3
102 146 2
102 147 2
102 148 6
102 149 1
102 150 10
102 151 4
102 153 3
102 154 1
102 155 2
102 156 10
102 158 5
102 159 6
102 160 8
102 161 10
102 162 3
102 163 9
102 164 6
102 166 7
102 167 9
102 168 4
102 170 2
102 171 5
102 173 4
102 174 8
102 175 1
102 176 5
102 178 8
102 179 7
102 180 6
102 181 1
102 182 3
102 183 1
102 184 1
102 185 10
102 186 10
102 187 9
102 188 8
102 189 9
102 190 5
102 191 7
102 193 10
102 194 7
102 195 8
102 196 1
102 197 10
102 199 10
103 104 2
103 105 1
103 106 7
103 108 6
103 109 7
103 111 1
103 113 5
103 114 9
103 115 10
103 117 1
103 120 7
103 121 4
103 123 2
103 126 7
103 127 9
103 128 3
103 130 9
103 131 3
103 132 5
103 133 4
103 136 5
103 138 9
103 140 4
103 141 3
103 142 8
103 144 6
103 146 2
103 147 3
103 148 10
103 149 1
103 151 4
103 152 8
103 153 7
103 156 3
103 157 10
103 159 1
103 160 10
103 161 7
103 162 4
103 163 9
103 164 4
103 165 7
103 166 7
103 167 5
103 168 2
103 169 5
103 170 1
103 172 2
103 173 3
103 178 7
103 179 8
103 180 7
103 181 3
103 183 1
103 184 2
103 185 5
103 188 4
103 190 4
103 192 10
103 193 9
103 194 5
103 195 7
103 196 6
103 198 1
103 199 8
103 200 9
104 105 9
104 106 10
104 107 10
104 108 10
104 110 5
104 111 5
104 112 6
104 113 4
104 114 3
104 115 6
104 116 3
104 118 2
104 121 4
104 122 7
104 123 8
104 124 5
104 129 2
104 130 4
104 132 9
104 133 5
104 135 9
104 136 2
104 137 4
104 139 7
104 140 2
104 141 9
104 142 6
104 144 6
104 147 8
104 148 1
104 149 9
104 150 1
104 151 6
104 152 10
104 153 4
104 157 9
104 158 4
104 159 5
104 160 6
104 161 8
104 162 2
104 163 9
104 164 6
104 165 10
104 168 6
104 169 8
104 172 3
104 173 3
104 174 5
104 175 6
104 176 3
104 178 4
104 179 2
104 180 7
104 184 7
104 185 3
104 186 3
104 187 1
104 189 3
104 190 6
104 191 7
104 192 7
104 194 4
104 195 5
104 196 2
104 197 7
105 106 5
105 107 2
105 108 7
105 109 9
105 111 7
105 112 7
105 113 10
105 114 4
105 115 10
105 119 6
105 120 1
105 122 2
105 124 1
105 126 4
105 127 4
105 128 2
105 129 7
105 130 5
105 131 1
105 132 6
105 133 6
105 136 3
105 137 10
105 138 7
105 139 5
105 140 2
105 141 6
105 142 2
105 143 4
105 144 2
105 146 6
105 148 8
105 153 9
105 154 3
105 155 1
105 157 6
105 159 1
105 160 6
105 161 10
105 163 3
105 166 3
105 167 9
105 169 5
105 170 7
105 173 4
105 174 4
105 175 8
105 176 2
105 178 9
105 179 10
105 181 1
105 183 6
105 187 1
105 188 10
105 190 3
105 191 2
105 194 10
105 195 10
105 196 3
105 197 8
105 198 5
105 199 10
106 108 8
106 109 10
106 110 1
106 111 7
106 112 5
106 113 3
106 114 2
106 115 9
106 116 1
106 117 5
106 118 5
106 119 1
106 120 4
106 122 7
106 125 5
106 126 9
106 128 5
106 129 2
106 131 7
106 133 3
106 135 1
106 137 3
106 138 1
106 139 4
106 140 10
106 141 7
106 142 3
106 144 4
106 145 4
106 146 10
106 148 1
106 149 7
106 151 2
106 152 7
106 154 6
106 156 7
106 157 9
106 159 2
106 160 1
106 162 6
106 163 1
106 165 7
106 166 7
106 167 3
106 168 7
106 170 2
106 173 10
106 174 8
106 175 10
106 177 6
106 180 8
106 181 4
106 182 5
106 183 10
106 185 7
106 186 1
106 187 3
106 188 2
106 189 1
106 190 1
106 191 4
106 192 2
106 193 3
106 194 1
106 195 9
106 196 7
106 197 2
106 199 8
106 200 3
107 110 2
107 111 1
107 114 4
107 116 4
107 117 8
107 119 1
107 121 8
107 122 7
107 123 2
107 124 9
107 125 2
107 126 3
107 127 5
107 128 6
107 131 3
107 132 8
107 134 7
107 135 4
107 136 4
107 138 8
107 139 2
107 143 6
107 145 7
107 149 10
107 150 7
107 152 5
107 153 3
107 154 5
107 155 8
107 156 10
107 158 4
107 159 2
107 160 10
107 162 9
107 163 5
107 164 8
107 165 2
107 166 6
107 167 8
107 168 4
107 173 7
107 176 7
107 179 3
107 182 8
107 183 6
107 185 3
107 186 2
107 187 7
107 189 6
107 190 1
107 193 4
107 194 7
107 195 6
107 197 4
107 198 1
107 199 8
108 109 7
108 110 2
108 112 4
108 113 10
108 114 10
108 115 9
108 116 10
108 121 2
108 122 9
108 123 5
108 127 7
108 129 1
108 132 10
108 133 1
108 134 10
108 136 1
108 137 10
108 139 8
108 140 4
108 141 3
108 142 7
108 145 1
108 146 7
108 150 10
108 151 3
108 153 4
108 154 3
108 157 6
108 158 9
108 159 7
108 160 8
108 161 6
108 163 10
108 164 1
108 167 7
108 169 1
108 171 8
108 172 7
108 173 1
108 175 9
108 176 1
108 177 9
108 178 3
108 179 7
108 181 1
108 185 2
108 186 7
108 189 4
108 191 6
108 193 7
108 194 4
108 195 3
108 196 2
108 197 5
108 199 4
108 200 8
109 110 10
109 111 1
109 113 9
109 115 4
109 118 3
109 119 4
109 120 10
109 123 5
109 125 10
109 128 10
109 129 6
109 130 3
109 131 7
109 132 8
109 135 9
109 137 3
109 138 10
109 139 3
109 140 6
109 141 4
109 142 7
109 143 9
109 144 4
109 145 1
109 149 6
109 150 3
109 152 10
109 153 1
109 154 7
109 155 6
109 156 3
109 157 5
109 158 8
109 159 7
109 161 4
109 164 5
109 166 6
109 167 8
109 168 3
109 173 10
109 174 5
109 176 4
109 177 10
109 178 2
109 179 6
109 180 10
109 182 5
109 183 1
109 184 10
109 185 2
109 186 4
109 189 9
109 190 2
109 192 10
109 193 7
109 194 8
109 195 4
109 196 5
109 197 1
109 198 2
110 111 6
110 115 2
110 116 1
110 117 3
110 118 8
110 119 1
110 120 4
110 121 6
110 122 6
110 123 5
110 124 7
110 125 8
110 126 2
110 127 10
110 131 3
110 133 6
110 134 9
110 135 8
110 137 8
110 138 10
110 139 2
110 140 3
110 143 3
110 144 2
110 145 2
110 146 1
110 147 8
110 148 4
110 149 3
110 150 6
110 151 10
110 153 2
110 154 10
110 155 9
110 159 10
110 160 8
110 164 10
110 165 3
110 166 4
110 167 6
110 170 6
110 171 5
110 172 8
110 173 1
110 174 9
110 176 5
110 177 6
110 179 2
110 181 3
110 182 7
110 183 7
110 184 3
110 185 4
110 189 8
110 191 5
110 192 4
110 194 9
110 195 3
110 196 9
110 197 10
110 198 1
110 200 5
111 113 2
111 114 6
111 116 10
111 117 6
111 118 7
111 119 5
111 120 7
111 121 5
111 122 10
111 124 8
111 126 6
111 127 5
111 129 9
111 130 6
111 131 7
111 132 7
111 133 7
111 134 5
111 135 6
111 136 1
111 138 2
111 139 2
111 143 8
111 144 5
111 146 6
111 148 3
111 150 7
111 153 6
111 154 7
111 156 4
111 157 1
111 158 1
111 159 9
111 160 3
111 161 9
111 163 8
111 165 7
111 166 3
111 169 4
111 170 5
111 171 8
111 174 8
111 175 7
111 176 6
111 177 5
111 178 5
111 180 10
111 181 6
111 182 2
111 184 10
111 185 3
111 186 1
111 187 4
111 188 4
111 189 7
111 190 5
111 192 8
111 194 10
111 195 2
111 197 4
111 198 1
111 199 5
111 200 5
112 113 8
112 117 2
112 118 3
112 119 4
112 121 10
112 122 6
112 123 2
112 124 3
112 125 1
112 126 1
112 128 5
112 130 9
112 131 2
112 132 9
112 135 5
112 136 6
112 137 3
112 138 2
112 139 9
112 141 7
112 143 5
112 144 1
112 145 9
112 146 3
112 147 6
112 151 1
112 152 6
112 153 3
112 154 8
112 155 9
112 156 3
112 157 5
112 158 1
112 159 6
112 161 4
112 163 3
112 165 7
112 166 7
112 167 3
112 168 1
112 171 7
112 173 1
112 176 1
112 177 10
112 178 6
112 179 4
112 180 4
112 181 3
112 183 5
112 185 10
112 186 3
112 187 4
112 188 4
112 189 2
112 190 1
112 191 6
112 192 10
112 193 6
112 194 7
112 195 8
112 197 5
112 199 4
113 114 10
113 115 9
113 118 8
113 119 5
113 120 8
113 121 4
113 123 2
113 127 5
113 130 5
113 131 3
113 133 5
113 134 10
113 135 5
113 136 1
113 137 3
113 139 8
113 140 5
113 143 1
113 144 1
113 145 3
113 146 5
113 147 3
113 150 9
113 151 9
113 152 7
113 153 9
113 154 5
113 158 7
113 160 9
113 162 7
113 163 4
113 164 3
113 165 5
113 166 9
113 169 7
113 170 5
113 171 5
113 172 7
113 173 6
113 174 5
113 175 8
113 176 3
113 177 7
113 179 6
113 180 1
113 181 3
113 182 4
113 184 5
113 185 5
113 186 4
113 187 9
113 188 5
113 190 6
113 191 8
113 192 7
113 193 2
113 194 4
113 195 2
113 198 10
113 200 1
114 116 6
114 119 6
114 120 2
114 121 2
114 123 3
114 126 9
114 128 7
114 130 8
114 131 5
114 133 5
114 134 2
114 135 7
114 136 8
114 138 9
114 140 4
114 141 6
114 142 5
114 143 7
114 144 10
114 145 9
114 146 4
114 148 10
114 150 10
114 153 6
114 154 10
114 156 1
114 157 5
114 159 5
114 160 10
114 161 4
114 162 3
114 163 5
114 164 10
114 165 3
114 167 7
114 168 10
114 170 3
114 171 5
114 172 6
114 173 8
114 175 4
114 176 2
114 177 3
114 178 8
114 179 5
114 180 3
114 181 4
114 183 5
114 184 3
114 185 4
114 187 7
114 189 1
114 190 8
114 191 7
114 193 2
114 194 3
114 195 5
114 197 4
114 198 6
114 199 10
114 200 8
115 117 7
115 121 2
115 124 8
115 125 4
115 127 1
115 128 7
115 129 8
115 131 9
115 134 10
115 135 10
115 136 4
115 137 4
115 138 4
115 139 3
115 141 9
115 142 1
115 143 10
115 144 5
115 145 1
115 146 6
115 148 3
115 149 2
115 151 3
115 152 3
115 153 5
115 156 6
115 157 3
115 159 2
115 161 1
115 163 5
115 164 1
115 165 1
115 166 7
115 167 1
115 168 8
115 169 6
115 170 1
115 171 8
115 172 5
115 173 9
115 174 6
115 176 5
115 177 5
115 179 4
115 180 1
115 181 8
115 182 2
115 185 2
115 187 3
115 189 9
115 190 3
115 191 1
115 192 9
115 193 1
115 194 2
115 195 2
115 196 1
115 198 10
115 200 6
116 117 6
116 118 3
116 119 9
116 123 4
116 124 8
116 125 10
116 126 9
116 127 1
116 128 4
116 129 10
116 131 4
116 133 10
116 137 3
116 138 4
116 139 3
116 140 9
116 141 3
116 142 5
116 143 10
116 144 3
116 147 2
116 149 8
116 152 7
116 153 4
116 154 8
116 155 9
116 156 7
116 158 9
116 160 9
116 161 1
116 163 7
116 166 6
116 167 1
116 168 10
116 169 3
116 170 10
116 171 8
116 172 9
116 173 3
116 175 4
116 176 10
116 177 1
116 178 7
116 181 10
116 182 5
116 183 1
116 184 8
116 185 7
116 186 8
116 187 6
116 188 8
116 189 10
116 190 1
116 192 7
116 193 2
116 194 8
116 195 3
116 196 9
116 198 6
116 200 6
117 118 7
117 120 3
117 122 8
117 124 8
117 125 8
117 127 7
117 128 7
117 129 1
117 133 7
117 135 5
117 136 10
117 137 7
117 138 5
117 141 2
117 143 4
117 144 6
117 147 8
117 148 1
117 149 4
117 151 3
117 152 7
117 153 1
117 154 5
117 155 3
117 156 8
117 158 8
117 159 3
117 160 8
117 161 10
117 162 5
117 163 8
117 165 7
117 168 8
117 169 1
117 172 10
117 174 7
117 175 3
117 183 6
117 184 6
117 187 10
117 188 4
117 190 2
117 191 5
117 192 2
117 193 2
117 197 6
117 199 9
117 200 2
118 119 2
118 120 1
118 122 10
118 124 7
118 125 10
118 127 2
118 128 6
118 130 5
118 131 9
118 132 10
118 133 6
118 134 3
118 135 5
118 136 6
118 137 6
118 138 9
118 139 6
118 140 4
118 141 10
118 142 4
118 144 2
118 145 7
118 146 9
118 147 5
118 149 5
118 150 4
118 152 9
118 154 1
118 156 10
118 157 5
118 158 10
118 159 10
118 160 1
118 161 1
118 162 10
118 163 7
118 164 8
118 165 10
118 166 8
118 167 8
118 168 7
118 170 9
118 171 7
118 172 1
118 173 9
118 174 1
118 175 8
118 176 6
118 177 3
118 179 4
118 180 7
118 181 7
118 182 4
118 183 8
118 184 2
118 185 3
118 186 8
118 187 9
118 189 4
118 190 9
118 191 1
118 192 4
118 194 8
118 195 3
118 196 8
118 197 4
118 198 3
118 199 8
118 200 1
119 120 1
119 121 9
119 123 10
119 126 4
119 128 3
119 130 3
119 131 4
119 132 5
119 134 3
119 135 9
119 136 6
119 137 2
119 138 2
119 139 3
119 141 2
119 142 2
119 143 6
119 144 8
119 145 5
119 146 9
119 147 6
119 148 8
119 149 8
119 150 2
119 151 3
119 152 1
119 153 10
119 154 4
119 156 5
119 159 2
119 160 1
119 161 8
119 162 9
119 164 4
119 166 1
119 167 6
119 168 3
119 170 5
119 171 9
119 172 3
119 173 7
119 177 10
119 179 7
119 180 2
119 181 10
119 182 3
119 183 3
119 185 5
119 186 4
119 187 9
119 188 10
119 189 4
119 190 1
119 193 2
119 194 4
119 195 1
119 196 4
119 198 10
119 199 2
119 200 9
120 123 4
120 124 9
120 125 3
120 126 2
120 127 7
120 128 2
120 129 7
120 132 6
120 133 6
120 134 10
120 135 9
120 136 8
120 138 6
120 140 10
120 142 8
120 143 1
120 144 4
120 145 3
120 148 10
120 150 9
120 151 3
120 152 3
120 153 9
120 156 4
120 157 6
120 159 7
120 160 6
120 163 1
120 165 3
120 166 10
120 167 9
120 169 7
120 170 8
120 173 6
120 175 8
120 176 9
120 177 6
120 178 8
120 179 2
120 180 6
120 181 9
120 182 10
120 183 1
120 185 1
120 186 6
120 187 5
120 188 5
120 189 6
120 190 6
120 196 6
120 198 9
120 199 4
120 200 8
121 122 6
121 123 6
121 124 7
121 126 2
121 127 7
121 129 7
121 131 9
121 132 9
121 133 4
121 135 2
121 136 10
121 137 3
121 138 3
121 141 10
121 143 10
121 144 3
121 145 10
121 146 3
121 147 3
121 151 4
121 154 6
121 158 5
121 159 9
121 161 8
121 162 4
121 165 8
121 166 6
121 167 4
121 168 6
121 171 5
121 172 5
121 174 4
121 176 5
121 177 9
121 179 9
121 180 1
121 181 6
121 182 7
121 184 6
121 185 6
121 186 1
121 187 2
121 188 5
121 189 9
121 190 8
121 191 9
121 192 2
121 196 5
121 197 4
121 198 2
121 199 9
121 200 3
122 125 7
122 126 2
122 128 5
122 129 1
122 130 2
122 132 4
122 133 5
122 134 10
122 136 6
122 137 6
122 138 8
122 140 1
122 141 2
122 142 2
122 143 8
122 148 4
122 149 2
122 150 5
122 152 6
122 153 10
122 156 2
122 158 6
122 159 4
122 161 8
122 162 10
122 163 1
122 164 6
122 165 5
122 166 7
122 168 2
122 171 7
122 172 8
122 174 7
122 175 4
122 176 3
122 177 1
122 178 2
122 180 3
122 183 8
122 184 9
122 186 1
122 187 6
122 188 8
122 189 5
122 191 6
122 192 8
122 193 4
122 194 7
122 195 5
122 196 6
122 197 7
122 198 4
122 199 3
122 200 5
123 124 3
123 125 6
123 126 6
123 127 8
123 128 5
123 129 8
123 130 9
123 133 2
123 134 2
123 135 4
123 136 10
123 138 3
123 139 3
123 141 9
123 144 9
123 145 6
123 146 7
123 147 5
123 150 4
123 152 10
123 153 2
123 156 7
123 157 6
123 158 6
123 159 5
123 160 3
123 161 6
123 162 8
123 164 2
123 165 3
123 166 2
123 167 1
123 168 4
123 169 10
123 171 8
123 172 3
123 173 2
123 174 8
123 175 5
123 177 6
123 179 10
123 181 6
123 182 5
123 183 8
123 186 8
123 187 8
123 188 2
123 189 5
123 190 5
123 191 4
123 192 2
123 193 6
123 194 10
123 196 8
123 198 5
123 200 4
124 126 5
124 127 1
124 128 10
124 130 7
124 131 2
124 132 8
124 134 1
124 136 10
124 138 9
124 139 9
124 140 7
124 141 3
124 143 10
124 144 10
124 145 5
124 147 2
124 148 4
124 149 8
124 150 10
124 151 5
124 152 4
124 155 10
124 156 4
124 159 3
124 160 10
124 161 5
124 162 5
124 163 10
124 164 3
124 165 1
124 167 8
124 168 2
124 170 5
124 171 4
124 172 10
124 173 6
124 175 3
124 176 5
124 177 1
124 178 5
124 179 9
124 180 7
124 181 6
124 182 1
124 183 6
124 185 4
124 186 7
124 187 5
124 188 2
124 189 10
124 190 4
124 191 8
124 192 10
124 195 3
124 197 2
124 198 10
124 199 1
125 127 1
125 129 2
125 130 8
125 131 9
125 132 7
125 133 5
125 135 10
125 136 4
125 138 8
125 139 6
125 140 9
125 141 8
125 142 7
125 144 1
125 145 2
125 146 6
125 149 8
125 150 1
125 152 9
125 153 4
125 154 3
125 155 4
125 158 4
125 159 2
125 163 3
125 164 5
125 166 5
125 169 6
125 171 4
125 172 3
125 173 10
125 174 7
125 175 4
125 177 7
125 178 3
125 179 3
125 180 9
125 181 7
125 182 3
125 183 8
125 184 5
125 185 2
125 186 9
125 191 9
125 192 6
125 193 6
125 194 2
125 195 10
125 198 9
125 199 5
125 200 2
126 129 9
126 133 8
126 135 2
126 136 4
126 137 8
126 138 7
126 139 2
126 140 4
126 141 7
126 143 8
126 144 8
126 145 3
126 150 5
126 153 9
126 154 8
126 155 7
126 156 2
126 157 1
126 158 9
126 159 1
126 160 8
126 161 6
126 162 9
126 163 7
126 165 7
126 167 4
126 168 7
126 169 3
126 170 4
126 171 9
126 172 7
126 173 7
126 175 10
126 176 8
126 179 1
126 180 5
126 181 6
126 183 2
126 184 7
126 185 3
126 188 6
126 192 5
126 193 7
126 194 4
126 195 6
126 196 2
126 197 7
126 198 10
126 199 10
126 200 1
127 129 5
127 132 6
127 133 4
127 134 10
127 135 2
127 136 3
127 137 6
127 141 10
127 142 10
127 143 5
127 144 7
127 146 2
127 147 1
127 148 10
127 149 6
127 151 5
127 152 7
127 153 6
127 154 4
127 155 4
127 157 4
127 158 6
127 159 6
127 161 5
127 162 10
127 163 3
127 164 8
127 165 1
127 166 6
127 167 6
127 170 9
127 172 4
127 175 1
127 176 1
127 178 1
127 180 5
127 181 5
127 182 2
127 183 2
127 184 9
127 186 1
127 187 4
127 190 2
127 193 5
127 195 1
127 196 4
127 197 1
127 199 7
127 200 7
128 130 10
128 131 6
128 133 7
128 134 4
128 135 5
128 137 2
128 138 5
128 139 3
128 140 2
128 141 3
128 142 2
128 143 2
128 144 4
128 145 2
128 146 6
128 147 1
128 148 10
128 149 3
128 150 7
128 152 8
128 156 7
128 160 1
128 161 4
128 162 3
128 164 8
128 165 7
128 166 6
128 167 1
128 168 9
128 171 6
128 172 4
128 173 4
128 177 4
128 178 6
128 179 3
128 183 4
128 184 10
128 185 1
128 186 10
128 187 2
128 189 3
128 190 2
128 192 1
128 193 4
128 194 10
128 195 7
128 196 5
128 197 6
128 198 8
128 200 2
129 131 1
129 132 2
129 134 8
129 135 6
129 136 7
129 137 3
129 138 10
129 139 9
129 141 7
129 144 1
129 145 1
129 146 5
129 151 10
129 152 9
129 153 7
129 154 1
129 155 6
129 157 5
129 158 1
129 159 3
129 160 6
129 161 10
129 162 10
129 163 8
129 164 3
129 165 1
129 167 9
129 169 5
129 171 2
129 172 2
129 173 1
129 174 9
129 175 10
129 176 6
129 177 2
129 178 7
129 180 8
129 181 7
129 184 5
129 185 6
129 187 2
129 188 2
129 191 5
129 192 10
129 193 1
129 195 1
129 196 2
129 197 9
129 198 2
129 199 6
129 200 4
130 131 3
130 132 3
130 133 3
130 134 9
130 136 9
130 137 8
130 138 5
130 140 5
130 141 3
130 144 1
130 147 9
130 148 5
130 149 9
130 150 2
130 151 9
130 152 9
130 153 9
130 157 7
130 158 9
130 159 5
130 160 10
130 161 2
130 162 1
130 164 1
130 165 2
130 166 2
130 168 5
130 169 7
130 170 2
130 171 8
130 173 1
130 174 3
130 175 6
130 177 7
130 178 5
130 179 8
130 180 3
130 182 8
130 183 5
130 184 9
130 185 9
130 186 10
130 187 10
130 189 7
130 190 4
130 191 4
130 192 3
130 193 9
130 194 2
130 195 6
130 197 7
130 198 10
130 199 5
130 200 6
131 132 2
131 133 5
131 134 7
131 135 5
131 136 7
131 137 8
131 138 6
131 139 2
131 140 2
131 142 8
131 144 3
131 145 8
131 146 7
131 147 6
131 149 6
131 150 3
131 152 2
131 153 4
131 155 7
131 156 6
131 157 1
131 158 8
131 160 2
131 162 10
131 165 5
131 166 2
131 167 3
131 168 1
131 170 1
131 172 3
131 174 1
131 175 3
131 176 7
131 178 3
131 179 2
131 180 4
131 182 10
131 184 1
131 185 2
131 188 7
131 189 7
131 192 3
131 193 4
131 194 4
131 196 10
131 197 8
131 198 1
131 199 10
131 200 9
132 134 8
132 136 7
132 137 4
132 138 3
132 141 6
132 143 7
132 144 1
132 145 5
132 146 2
132 147 4
132 149 10
132 150 7
132 152 6
132 154 9
132 156 10
132 158 2
132 159 10
132 160 1
132 161 5
132 163 10
132 165 4
132 168 1
132 169 8
132 170 6
132 171 8
132 172 7
132 173 10
132 174 6
132 176 7
132 177 7
132 178 3
132 180 10
132 182 10
132 184 7
132 185 3
132 186 5
132 187 8
132 189 4
132 190 9
132 192 10
132 193 1
132 194 1
132 195 9
132 196 3
132 197 3
132 198 4
132 199 10
132 200 1
133 134 8
133 135 2
133 136 2
133 138 4
133 139 1
133 140 7
133 141 8
133 143 10
133 144 1
133 145 9
133 147 7
133 148 7
133 149 4
133 150 1
133 153 7
133 154 10
133 155 7
133 156 10
133 157 4
133 158 2
133 159 10
133 161 10
133 163 1
133 165 1
133 166 10
133 167 10
133 169 7
133 174 3
133 175 8
133 176 10
133 178 4
133 179 10
133 180 9
133 181 4
133 185 7
133 186 4
133 188 5
133 189 5
133 190 4
133 192 7
133 194 9
133 195 4
133 196 3
133 197 10
133 198 7
133 200 6
134 135 4
134 137 1
134 138 1
134 139 1
134 140 10
134 141 5
134 142 4
134 143 7
134 144 3
134 145 6
134 146 8
134 147 6
134 148 5
134 153 7
134 154 1
134 157 9
134 160 8
134 161 9
134 162 6
134 164 1
134 165 8
134 166 10
134 167 5
134 173 8
134 177 5
134 179 7
134 180 6
134 181 9
134 182 9
134 183 9
134 184 7
134 185 3
134 188 6
134 189 9
134 191 6
134 194 1
134 195 5
134 196 6
134 197 8
134 198 10
134 199 4
134 200 10
135 136 9
135 137 9
135 138 1
135 139 9
135 140 8
135 141 8
135 144 2
135 145 8
135 146 1
135 147 8
135 148 10
135 149 3
135 150 4
135 151 5
135 152 6
135 155 3
135 156 2
135 157 3
135 160 3
135 161 10
135 162 7
135 163 7
135 164 10
135 165 6
135 166 3
135 168 9
135 169 8
135 174 8
135 177 2
135 180 4
135 181 4
135 182 6
135 184 3
135 185 5
135 186 5
135 187 2
135 189 4
135 190 4
135 191 10
135 192 3
135 197 1
135 198 3
135 199 4
135 200 5
136 137 7
136 138 7
136 139 7
136 140 10
136 141 3
136 142 9
136 143 4
136 144 4
136 145 5
136 147 9
136 149 8
136 150 2
136 151 7
136 152 6
136 153 9
136 154 2
136 156 4
136 157 3
136 158 4
136 159 6
136 160 10
136 162 10
136 163 1
136 164 3
136 165 2
136 166 2
136 167 4
136 169 1
136 170 8
136 171 1
136 173 7
136 174 10
136 175 8
136 176 7
136 178 10
136 180 8
136 181 10
136 182 3
136 185 8
136 186 10
136 187 1
136 188 5
136 189 8
136 190 2
136 191 6
136 193 8
136 194 6
136 195 6
136 197 8
136 198 6
136 199 8
136 200 4
137 139 9
137 140 9
137 141 7
137 146 9
137 148 3
137 149 6
137 150 5
137 151 6
137 152 5
137 154 10
137 155 7
137 157 5
137 158 7
137 159 3
137 160 9
137 161 4
137 162 6
137 164 8
137 165 6
137 166 4
137 171 5
137 172 9
137 174 7
137 175 6
137 176 4
137 177 1
137 180 2
137 183 4
137 184 1
137 186 3
137 188 5
137 189 9
137 190 8
137 191 4
137 192 8
137 194 1
137 195 9
137 197 2
137 198 5
137 199 9
138 139 3
138 140 10
138 141 6
138 144 4
138 146 8
138 148 5
138 149 3
138 150 10
138 151 7
138 152 7
138 153 7
138 155 9
138 156 5
138 158 9
138 159 8
138 163 2
138 166 1
138 168 2
138 169 3
138 170 9
138 171 2
138 172 7
138 173 9
138 174 2
138 175 1
138 176 3
138 177 1
138 178 7
138 179 10
138 180 6
138 181 5
138 182 8
138 183 7
138 184 9
138 185 7
138 186 6
138 187 5
138 188 1
138 192 8
138 198 8
138 199 8
139 140 7
139 141 10
139 142 2
139 143 1
139 145 5
139 146 3
139 148 1
139 149 4
139 150 7
139 151 7
139 152 7
139 153 4
139 154 5
139 156 1
139 157 10
139 158 6
139 160 9
139 162 1
139 163 9
139 164 9
139 167 6
139 169 3
139 170 6
139 171 3
139 172 7
139 173 3
139 174 8
139 175 5
139 181 10
139 185 1
139 187 6
139 189 4
139 190 3
139 191 9
139 192 3
139 194 8
139 195 8
139 196 7
139 197 6
139 198 2
140 141 5
140 142 3
140 144 1
140 146 3
140 148 9
140 149 8
140 151 5
140 153 1
140 155 1
140 157 1
140 159 7
140 160 3
140 161 3
140 163 6
140 164 3
140 166 1
140 167 7
140 170 10
140 171 4
140 172 4
140 173 2
140 174 4
140 175 5
140 176 1
140 177 1
140 179 8
140 180 9
140 181 2
140 182 1
140 184 4
140 185 3
140 186 8
140 187 2
140 188 2
140 189 7
140 190 5
140 192 3
140 194 8
140 195 6
140 197 8
140 198 3
140 199 4
141 142 2
141 143 10
141 146 8
141 150 1
141 151 1
141 154 1
141 155 2
141 156 5
141 158 3
141 159 9
141 160 9
141 161 3
141 162 3
141 163 2
141 164 2
141 165 3
141 166 3
141 168 4
141 169 7
141 171 9
141 172 4
141 173 7
141 174 6
141 177 2
141 179 2
141 180 2
141 182 6
141 183 1
141 184 8
141 187 9
141 188 9
141 189 10
141 190 10
141 192 9
141 193 1
141 194 10
141 195 9
141 196 10
141 197 9
141 199 3
142 143 10
142 144 2
142 145 5
142 146 3
142 147 8
142 148 1
142 152 1
142 154 1
142 155 1
142 158 6
142 159 3
142 160 2
142 161 4
142 165 6
142 167 5
142 168 3
142 169 6
142 170 6
142 171 5
142 173 2
142 174 3
142 176 9
142 177 10
142 179 7
142 180 10
142 183 2
142 184 6
142 185 9
142 186 10
142 187 3
142 188 5
142 189 2
142 191 1
142 192 1
142 195 9
142 196 4
142 198 6
143 145 9
143 147 9
143 148 4
143 149 9
143 150 10
143 152 3
143 153 6
143 156 5
143 157 9
143 158 6
143 159 10
143 160 6
143 162 3
143 163 9
143 165 7
143 166 9
143 167 5
143 168 1
143 169 10
143 171 6
143 172 6
143 173 5
143 174 5
143 175 8
143 177 1
143 178 10
143 180 8
143 181 10
143 182 6
143 184 9
143 185 2
143 186 8
143 187 6
143 190 10
143 191 8
143 193 8
143 196 8
143 197 2
143 199 4
143 200 3
144 146 1
144 147 10
144 148 4
144 150 5
144 151 7
144 152 7
144 157 7
144 158 5
144 159 10
144 161 5
144 162 4
144 164 1
144 165 3
144 166 9
144 168 3
144 169 9
144 171 9
144 172 7
144 173 8
144 176 8
144 177 1
144 178 1
144 179 8
144 182 10
144 183 8
144 184 3
144 185 8
144 186 6
144 187 1
144 188 8
144 189 4
144 190 5
144 193 6
144 194 5
144 196 5
144 197 2
144 198 10
144 200 7
145 147 6
145 148 1
145 149 4
145 150 1
145 152 7
145 153 7
145 154 4
145 155 1
145 156 1
145 158 6
145 159 7
145 161 5
145 162 3
145 163 4
145 166 5
145 167 7
145 169 3
145 170 10
145 172 3
145 173 6
145 175 9
145 177 6
145 178 8
145 179 4
145 180 7
145 181 9
145 182 6
145 184 1
145 185 7
145 186 4
145 187 3
145 188 1
145 191 3
145 193 4
145 195 6
145 196 2
145 198 2
145 199 6
145 200 2
146 147 6
146 148 2
146 149 8
146 150 1
146 151 9
146 152 6
146 153 1
146 154 10
146 155 6
146 156 8
146 157 3
146 159 1
146 160 10
146 163 7
146 164 7
146 165 6
146 166 10
146 167 8
146 168 3
146 169 4
146 170 10
146 171 2
146 172 5
146 173 6
146 174 5
146 175 8
146 176 9
146 178 6
146 179 1
146 180 7
146 181 7
146 182 10
146 183 2
146 184 7
146 185 9
146 186 3
146 187 8
146 189 2
146 190 2
146 193 4
146 194 5
146 195 8
146 196 6
146 197 10
146 198 6
146 200 9
147 148 3
147 151 1
147 152 8
147 153 10
147 155 9
147 156 10
147 157 1
147 158 4
147 159 2
147 160 2
147 161 2
147 162 9
147 163 2
147 164 1
147 166 4
147 171 7
147 173 5
147 174 6
147 176 10
147 178 2
147 179 10
147 181 6
147 182 3
147 183 3
147 188 5
147 189 5
147 190 4
147 192 2
147 193 5
147 194 9
147 195 6
147 196 9
147 197 3
147 198 1
147 199 1
147 200 3
148 149 1
148 150 1
148 151 2
148 153 4
148 154 3
148 156 5
148 157 1
148 159 7
148 160 5
148 161 10
148 162 8
148 163 6
148 164 4
148 165 6
148 166 5
148 167 9
148 168 8
148 169 6
148 171 2
148 173 1
148 174 2
148 176 10
148 177 5
148 178 9
148 180 8
148 181 3
148 182 10
148 184 5
148 185 4
148 186 6
148 187 7
148 188 8
148 189 6
148 190 3
148 192 10
148 194 4
148 196 4
148 197 6
148 198 3
148 199 5
149 150 4
149 151 6
149 153 9
149 155 6
149 156 5
149 157 3
149 158 8
149 161 5
149 165 10
149 166 5
149 167 6
149 168 8
149 169 5
149 170 1
149 171 10
149 173 10
149 174 7
149 176 5
149 177 2
149 178 1
149 179 5
149 181 8
149 183 8
149 184 7
149 186 7
149 189 4
149 190 2
149 193 5
149 195 10
149 196 6
149 198 3
149 199 7
150 151 4
150 152 7
150 153 4
150 154 2
150 156 1
150 157 2
150 158 4
150 159 6
150 160 8
150 161 10
150 162 10
150 163 7
150 165 3
150 167 1
150 168 9
150 169 8
150 170 9
150 172 10
150 174 10
150 175 9
150 177 6
150 178 10
150 179 5
150 180 7
150 181 3
150 182 7
150 185 4
150 187 4
150 188 6
150 189 3
150 190 1
150 191 4
150 192 1
150 193 1
150 195 3
150 196 10
150 197 3
150 198 5
151 152 10
151 153 5
151 154 5
151 155 10
151 156 4
151 157 7
151 158 6
151 160 4
151 161 1
151 163 9
151 164 9
151 166 7
151 167 1
151 168 8
151 169 8
151 175 9
151 177 5
151 178 4
151 179 2
151 180 7
151 181 1
151 182 4
151 183 10
151 184 6
151 187 3
151 188 10
151 189 7
151 190 8
151 191 7
151 193 5
151 194 4
151 196 2
151 197 2
151 198 5
151 199 2
151 200 7
152 153 7
152 157 7
152 158 8
152 160 6
152 162 9
152 163 10
152 164 9
152 165 6
152 166 3
152 167 5
152 168 4
152 169 4
152 171 10
152 172 1
152 173 9
152 174 1
152 175 10
152 176 1
152 177 8
152 178 10
152 179 7
152 180 10
152 184 5
152 185 3
152 186 1
152 187 1
152 188 4
152 190 6
152 191 3
152 192 3
152 196 9
152 197 7
152 198 1
152 199 5
152 200 2
153 155 6
153 156 8
153 158 2
153 159 2
153 160 5
153 162 5
153 165 5
153 166 5
153 170 4
153 172 6
153 173 10
153 174 10
153 175 1
153 177 5
153 179 8
153 180 2
153 181 1
153 182 7
153 183 3
153 184 1
153 185 10
153 186 7
153 187 9
153 188 8
153 189 5
153 190 10
153 191 2
153 192 6
153 193 6
153 194 6
153 195 5
153 196 2
153 198 7
154 156 7
154 157 1
154 159 1
154 160 6
154 161 6
154 162 2
154 163 6
154 164 4
154 167 6
154 168 5
154 169 5
154 170 3
154 176 9
154 177 7
154 179 4
154 181 9
154 182 10
154 185 1
154 186 7
154 187 3
154 189 3
154 190 5
154 191 4
154 193 8
154 194 4
154 196 2
154 197 1
154 198 3
154 199 1
154 200 9
155 156 1
155 159 9
155 161 6
155 162 9
155 164 1
155 165 7
155 166 4
155 168 4
155 169 3
155 170 2
155 171 10
155 172 3
155 173 10
155 174 7
155 175 3
155 176 1
155 177 8
155 178 8
155 180 6
155 181 2
155 183 9
155 184 3
155 185 3
155 186 7
155 187 2
155 188 5
155 189 6
155 190 7
155 191 4
155 192 4
155 194 6
155 195 5
155 197 6
155 199 4
155 200 8
156 157 5
156 160 3
156 161 10
156 162 1
156 163 4
156 164 8
156 165 6
156 167 6
156 168 5
156 169 4
156 171 10
156 174 2
156 178 10
156 180 5
156 181 10
156 182 2
156 183 2
156 184 8
156 186 4
156 187 10
156 188 6
156 189 1
156 190 7
156 191 8
156 192 3
156 193 6
156 194 4
156 195 6
156 196 2
156 197 8
156 198 1
156 200 7
157 161 1
157 165 9
157 166 10
157 171 2
157 173 9
157 174 5
157 175 2
157 176 4
157 177 7
157 178 9
157 179 9
157 180 5
157 181 6
157 183 4
157 184 1
157 185 8
157 186 7
157 187 7
157 190 10
157 191 4
157 192 10
157 194 2
157 195 6
157 197 2
157 198 9
157 199 6
158 159 8
158 160 6
158 161 4
158 164 7
158 166 6
158 167 1
158 168 4
158 169 7
158 170 4
158 176 6
158 179 7
158 180 10
158 184 10
158 186 1
158 187 1
158 190 4
158 191 7
158 193 2
158 194 6
158 195 10
158 196 8
158 199 9
158 200 7
159 160 10
159 161 4
159 162 8
159 163 9
159 164 5
159 165 8
159 166 6
159 167 3
159 168 2
159 170 7
159 174 5
159 175 5
159 176 3
159 177 3
159 179 10
159 180 6
159 181 6
159 182 10
159 183 4
159 184 2
159 185 9
159 186 1
159 187 6
159 189 5
159 190 5
159 193 9
159 194 7
159 195 3
159 197 9
159 198 6
159 199 9
160 161 7
160 162 3
160 163 6
160 164 7
160 165 6
160 167 3
160 170 9
160 173 3
160 174 3
160 178 1
160 179 8
160 181 4
160 183 6
160 184 5
160 185 3
160 186 10
160 187 4
160 188 5
160 189 1
160 190 9
160 191 6
160 192 7
160 193 10
160 194 9
160 197 7
160 198 4
160 199 6
160 200 5
161 162 3
161 163 2
161 164 1
161 165 6
161 166 6
161 167 6
161 168 3
161 170 4
161 171 6
161 172 7
161 173 3
161 174 4
161 175 6
161 176 9
161 177 3
161 178 3
161 179 9
161 180 9
161 181 2
161 184 6
161 186 5
161 187 5
161 188 4
161 189 9
161 194 2
161 196 2
161 197 3
161 198 4
161 199 3
161 200 1
162 163 6
162 164 1
162 167 1
162 169 5
162 170 4
162 171 8
162 174 2
162 175 9
162 177 4
162 178 3
162 179 2
162 180 4
162 181 7
162 182 9
162 183 9
162 185 4
162 186 4
162 187 9
162 188 1
162 189 4
162 191 8
162 192 3
162 193 10
162 197 4
162 199 3
162 200 10
163 164 9
163 165 4
163 166 4
163 167 6
163 168 10
163 169 2
163 170 8
163 172 10
163 173 7
163 174 5
163 175 1
163 176 3
163 177 2
163 178 4
163 180 9
163 181 4
163 182 2
163 183 3
163 184 10
163 185 6
163 186 2
163 187 1
163 188 8
163 189 1
163 190 2
163 194 8
163 197 9
163 198 5
163 199 5
164 165 3
164 166 2
164 168 6
164 169 5
164 171 6
164 174 2
164 175 9
164 176 8
164 177 9
164 178 10
164 179 8
164 180 7
164 181 3
164 182 1
164 183 9
164 185 1
164 186 6
164 190 1
164 191 6
164 192 5
164 195 2
164 196 5
164 197 3
164 198 1
164 199 10
164 200 8
165 166 6
165 167 1
165 168 2
165 169 2
165 170 9
165 171 2
165 175 8
165 176 2
165 177 2
165 178 9
165 179 10
165 180 6
165 181 3
165 182 3
165 183 3
165 184 10
165 185 10
165 186 3
165 187 8
165 188 4
165 189 5
165 190 6
165 191 9
165 192 10
165 193 5
165 194 9
165 195 10
165 196 8
165 197 9
165 200 1
166 168 4
166 169 7
166 170 8
166 171 2
166 172 1
166 173 9
166 177 1
166 178 1
166 179 9
166 180 1
166 182 7
166 184 5
166 185 8
166 186 1
166 187 7
166 189 2
166 191 1
166 193 4
166 194 8
166 195 1
166 197 7
166 198 9
166 199 1
166 200 8
167 168 6
167 169 4
167 170 9
167 175 8
167 177 1
167 180 5
167 181 3
167 182 9
167 183 1
167 184 1
167 187 9
167 188 3
167 189 1
167 191 3
167 192 6
167 193 8
167 194 5
167 196 3
167 197 2
167 198 4
167 199 4
167 200 3
168 170 4
168 171 9
168 172 3
168 174 9
168 175 10
168 176 2
168 178 4
168 179 4
168 180 2
168 185 8
168 186 1
168 187 3
168 189 2
168 190 4
168 191 8
168 192 1
168 193 5
168 194 3
168 196 9
168 197 2
168 198 3
168 199 4
168 200 1
169 170 4
169 172 10
169 173 10
169 174 4
169 175 9
169 176 6
169 177 2
169 178 5
169 180 6
169 181 6
169 182 1
169 183 2
169 185 2
169 186 8
169 187 2
169 188 4
169 190 3
169 191 2
169 192 4
169 193 5
169 194 7
169 195 8
169 197 10
169 199 3
170 172 8
170 173 1
170 174 3
170 176 9
170 177 1
170 178 8
170 180 3
170 181 3
170 182 9
170 183 2
170 185 4
170 186 1
170 188 8
170 189 10
170 190 5
170 191 10
170 192 2
170 194 7
170 196 9
170 198 9
170 199 5
170 200 9
171 172 1
171 173 10
171 174 9
171 175 1
171 176 4
171 177 2
171 178 5
171 179 6
171 180 9
171 181 6
171 182 1
171 183 7
171 186 6
171 187 10
171 188 2
171 190 3
171 191 8
171 192 7
171 194 1
171 197 1
171 199 6
172 173 7
172 174 1
172 175 7
172 176 9
172 177 2
172 178 9
172 179 9
172 181 9
172 183 8
172 186 8
172 190 10
172 191 7
172 192 6
172 194 9
172 195 2
172 196 5
172 197 1
172 198 5
172 200 3
173 175 10
173 176 2
173 179 2
173 180 5
173 182 10
173 183 7
173 184 2
173 187 2
173 188 10
173 189 10
173 190 3
173 191 5
173 192 5
173 193 4
173 194 6
173 195 3
173 196 8
173 198 5
173 200 2
174 175 5
174 176 8
174 177 5
174 179 8
174 180 2
174 182 8
174 183 6
174 184 3
174 185 9
174 189 8
174 190 4
174 191 4
174 192 9
174 195 1
174 196 10
174 198 1
174 200 4
175 176 3
175 179 1
175 181 9
175 184 7
175 185 5
175 186 1
175 187 5
175 188 1
175 189 7
175 190 4
175 191 5
175 192 4
175 193 2
175 194 7
175 196 4
175 197 10
175 199 3
175 200 9
176 177 4
176 178 4
176 179 1
176 180 8
176 183 7
176 184 10
176 185 3
176 187 8
176 188 6
176 189 4
176 190 4
176 191 1
176 196 2
176 197 1
177 178 1
177 181 4
177 182 8
177 183 9
177 184 3
177 186 3
177 189 8
177 191 3
177 192 10
177 193 6
177 195 2
177 196 5
177 198 7
177 200 10
178 179 1
178 182 8
178 183 7
178 184 7
178 185 1
178 187 2
178 189 7
178 194 7
178 197 1
178 198 1
178 200 6
179 180 5
179 181 1
179 182 4
179 184 5
179 185 7
179 186 6
179 189 1
179 192 2
179 193 1
179 194 5
179 196 8
179 197 5
179 198 9
180 181 7
180 182 8
180 183 7
180 184 10
180 185 1
180 186 10
180 187 2
180 188 5
180 189 2
180 193 10
180 194 5
180 195 10
180 196 6
180 199 7
180 200 1
181 182 2
181 185 10
181 186 5
181 187 10
181 188 9
181 189 4
181 190 6
181 191 1
181 193 8
181 194 2
181 195 10
181 197 4
181 198 9
181 199 4
181 200 3
182 183 4
182 184 6
182 185 10
182 186 9
182 187 10
182 190 1
182 192 1
182 193 10
182 195 3
182 197 2
182 198 4
182 200 5
183 186 6
183 188 8
183 189 10
183 190 1
183 191 9
183 192 1
183 193 1
183 194 7
183 197 9
183 199 2
183 200 5
184 185 2
184 186 6
184 187 9
184 188 6
184 189 9
184 190 2
184 191 2
184 192 6
184 193 8
184 194 7
184 195 6
184 196 7
184 197 7
184 198 8
184 200 8
185 186 5
185 189 9
185 190 1
185 191 4
185 192 9
185 194 6
185 197 5
185 198 3
185 199 3
186 187 10
186 188 6
186 190 6
186 193 5
186 194 3
186 195 7
186 197 2
186 198 6
186 199 5
187 188 9
187 189 4
187 190 5
187 191 2
187 193 7
187 197 10
187 198 10
187 199 6
187 200 7
188 189 10
188 190 5
188 191 6
188 192 6
188 195 8
188 197 4
188 198 8
188 199 6
188 200 6
189 192 10
189 193 2
189 194 1
189 195 4
189 196 9
189 198 3
189 199 9
189 200 5
190 192 2
190 193 7
190 196 8
190 197 6
190 198 4
190 199 2
190 200 6
191 192 4
191 193 7
191 194 9
191 196 4
191 198 7
191 200 8
192 193 10
192 195 7
192 196 10
192 197 1
192 198 9
192 200 9
193 194 8
193 197 1
193 198 1
193 199 8
193 200 1
194 195 3
194 197 3
194 199 1
195 196 8
195 197 7
195 198 4
195 199 2
195 200 5
196 197 2
196 198 6
197 198 10
197 199 7
197 200 9
