200 5970 733.333
7
6
5
3
6
4
6
9
1
8
8
9
7
9
5
3
5
10
8
6
1
6
1
8
7
5
6
5
4
3
10
4
2
8
2
4
5
3
1
3
8
8
7
7
9
2
2
7
10
3
4
8
7
10
9
7
4
7
6
5
10
4
8
4
8
7
1
10
1
1
3
2
1
6
3
2
6
4
3
4
6
4
1
5
2
4
7
5
2
3
1
2
10
6
10
9
10
3
9
3
5
9
3
10
6
6
1
1
10
9
6
10
3
3
8
10
7
6
5
2
2
1
7
8
2
10
2
10
6
6
8
9
6
3
4
4
9
6
9
7
8
3
9
9
10
7
5
3
6
9
7
6
10
7
1
10
9
1
9
7
1
7
3
9
3
9
4
1
8
7
4
10
7
3
6
4
3
8
2
6
3
2
7
7
8
7
4
7
8
6
1
1
6
6
6
6
3
1
6
3
1 2 7
1 7 10
1 10 5
1 14 8
1 19 3
1 21 9
1 24 2
1 27 6
1 30 6
1 32 7
1 35 9
1 42 2
1 43 2
1 46 10
1 48 10
1 52 7
1 55 3
1 58 4
1 59 7
1 60 9
1 63 9
1 71 9
1 73 3
1 74 10
1 77 2
1 79 1
1 84 6
1 91 4
1 92 2
1 95 6
1 97 7
1 104 2
1 107 1
1 113 10
1 115 3
1 118 4
1 122 10
1 123 6
1 130 3
1 133 3
1 136 1
1 138 10
1 140 5
1 141 5
1 148 5
1 152 6
1 156 6
1 159 3
1 161 3
1 164 4
1 166 6
1 168 10
1 177 9
1 182 6
1 188 2
1 190 10
1 194 6
1 195 4
1 198 5
1 200 8
2 7 1
2 10 1
2 11 1
2 12 4
2 14 10
2 20 9
2 22 6
2 24 5
2 25 10
2 27 9
2 28 2
2 30 6
2 31 4
2 32 3
2 42 6
2 47 7
2 50 2
2 51 6
2 55 2
2 56 1
2 59 8
2 60 4
2 61 6
2 63 2
2 64 10
2 68 10
2 69 8
2 80 2
2 81 6
2 82 6
2 83 1
2 85 9
2 86 6
2 90 1
2 93 5
2 94 9
2 99 1
2 103 8
2 105 1
2 107 5
2 114 4
2 116 4
2 119 8
2 121 10
2 123 8
2 130 3
2 132 8
2 137 8
2 146 5
2 149 10
2 152 3
2 155 2
2 158 9
2 159 10
2 164 7
2 169 6
2 170 9
2 171 10
2 173 7
2 176 4
2 179 1
2 180 5
2 185 8
2 186 1
2 192 2
2 193 9
3 5 4
3 6 8
3 10 5
3 18 9
3 20 1
3 28 1
3 30 5
3 35 1
3 36 9
3 38 2
3 40 2
3 47 5
3 49 2
3 51 9
3 52 2
3 55 9
3 56 9
3 59 9
3 62 7
3 64 9
3 66 6
3 69 1
3 72 8
3 73 6
3 80 2
3 81 9
3 85 10
3 86 9
3 87 9
3 89 8
3 94 10
3 100 10
3 101 5
3 107 3
3 110 5
3 119 7
3 121 3
3 122 8
3 134 6
3 135 7
3 137 5
3 140 1
3 143 2
3 144 2
3 146 4
3 158 5
3 164 6
3 169 7
3 170 10
3 171 8
3 172 5
3 174 6
3 177 6
3 178 6
3 184 4
3 189 7
3 193 8
3 194 4
3 195 5
3 196 3
3 200 6
4 5 1
4 6 3
4 7 7
4 9 1
4 11 2
4 12 1
4 14 1
4 16 10
4 22 4
4 24 8
4 25 3
4 28 8
4 31 4
4 32 6
4 33 4
4 37 4
4 40 1
4 41 4
4 45 5
4 47 4
4 49 7
4 53 10
4 55 4
4 60 4
4 63 2
4 65 9
4 69 10
4 70 1
4 78 6
4 83 2
4 85 7
4 88 2
4 89 6
4 90 10
4 93 5
4 95 1
4 99 2
4 102 2
4 103 8
4 105 2
4 106 5
4 112 8
4 113 5
4 120 2
4 123 1
4 130 2
4 137 5
4 138 1
4 139 7
4 141 8
4 142 3
4 143 10
4 145 3
4 146 3
4 147 10
4 148 3
4 149 7
4 150 2
4 151 1
4 152 2
4 154 1
4 155 2
4 167 5
4 176 10
4 177 8
4 181 3
4 190 4
4 192 6
4 197 9
4 198 4
5 6 4
5 7 2
5 10 9
5 12 4
5 13 2
5 14 4
5 18 3
5 29 8
5 35 6
5 47 9
5 49 1
5 51 8
5 59 10
5 61 8
5 62 1
5 64 3
5 65 8
5 66 3
5 69 4
5 77 7
5 79 6
5 89 10
5 90 9
5 93 8
5 102 7
5 103 4
5 104 9
5 108 8
5 110 1
5 112 4
5 122 8
5 125 7
5 127 1
5 135 7
5 137 2
5 139 5
5 140 4
5 144 3
5 145 10
5 146 7
5 147 6
5 148 5
5 149 9
5 152 1
5 157 7
5 161 2
5 164 9
5 167 7
5 168 9
5 172 8
5 175 6
5 176 7
5 177 5
5 184 4
5 185 5
5 188 3
5 189 4
5 193 8
6 7 2
6 10 1
6 12 9
6 13 8
6 15 8
6 19 1
6 31 1
6 33 6
6 34 7
6 43 5
6 49 3
6 50 8
6 55 8
6 60 2
6 61 6
6 71 4
6 73 7
6 78 7
6 89 6
6 90 7
6 95 9
6 99 9
6 102 3
6 103 3
6 105 2
6 108 7
6 113 7
6 114 5
6 117 3
6 125 10
6 126 5
6 129 6
6 130 4
6 136 2
6 141 9
6 143 2
6 147 4
6 148 6
6 151 1
6 153 8
6 158 7
6 161 10
6 163 4
6 167 2
6 168 2
6 169 4
6 171 9
6 172 7
6 175 6
6 178 6
6 186 1
6 187 4
6 190 8
6 193 7
6 198 6
7 12 10
7 15 4
7 19 5
7 21 1
7 23 6
7 24 10
7 27 10
7 29 1
7 31 1
7 38 1
7 40 4
7 41 9
7 42 3
7 43 7
7 44 5
7 48 3
7 49 1
7 51 10
7 53 7
7 56 10
7 57 7
7 60 4
7 61 2
7 62 1
7 65 7
7 72 7
7 76 5
7 77 9
7 104 9
7 106 9
7 107 6
7 108 2
7 109 3
7 116 1
7 117 2
7 122 8
7 126 4
7 129 2
7 135 7
7 139 8
7 140 10
7 148 4
7 151 2
7 153 7
7 155 7
7 156 9
7 157 2
7 160 1
7 165 3
7 171 6
7 176 2
7 177 7
7 187 2
7 189 7
7 191 6
7 193 9
7 194 10
7 196 2
7 197 8
7 199 5
8 11 4
8 13 2
8 15 9
8 19 6
8 21 1
8 23 8
8 36 8
8 37 7
8 44 1
8 46 4
8 51 9
8 56 5
8 57 1
8 69 9
8 71 4
8 75 2
8 77 10
8 87 8
8 89 9
8 92 5
8 98 9
8 104 5
8 106 5
8 108 3
8 122 6
8 127 1
8 131 6
8 137 1
8 138 4
8 141 2
8 142 1
8 149 10
8 159 4
8 165 4
8 166 1
8 174 3
8 177 6
8 180 1
8 181 4
8 186 4
8 187 1
8 189 2
8 191 6
8 192 7
8 193 3
8 198 2
8 199 2
9 11 4
9 12 3
9 25 10
9 26 7
9 27 10
9 28 4
9 31 2
9 32 10
9 33 10
9 34 6
9 39 8
9 55 3
9 59 2
9 60 10
9 61 6
9 67 5
9 71 8
9 84 2
9 88 9
9 93 6
9 96 8
9 98 4
9 99 6
9 105 5
9 107 1
9 109 10
9 110 7
9 115 2
9 119 3
9 125 1
9 129 4
9 139 4
9 140 3
9 149 5
9 150 7
9 157 2
9 165 6
9 169 1
9 173 1
9 177 9
9 179 5
9 181 6
9 182 6
9 183 6
9 185 10
9 187 10
9 192 7
9 200 5
10 11 5
10 12 8
10 13 6
10 18 2
10 23 9
10 30 3
10 31 7
10 33 5
10 37 5
10 39 1
10 40 10
10 41 6
10 42 8
10 45 2
10 46 3
10 47 8
10 50 10
10 58 4
10 60 5
10 71 6
10 72 5
10 85 9
10 90 7
10 91 9
10 94 10
10 98 8
10 100 7
10 106 4
10 110 3
10 116 9
10 132 9
10 134 5
10 139 9
10 140 8
10 141 7
10 146 9
10 149 1
10 150 2
10 159 1
10 165 1
10 169 1
10 173 7
10 176 5
10 185 8
10 187 6
10 192 1
11 13 6
11 19 6
11 24 10
11 29 9
11 34 2
11 37 9
11 40 5
11 57 9
11 59 9
11 60 8
11 64 2
11 65 6
11 67 9
11 69 2
11 70 8
11 74 7
11 77 2
11 78 5
11 80 8
11 83 7
11 84 9
11 85 6
11 94 7
11 97 3
11 99 9
11 107 5
11 109 6
11 114 5
11 115 8
11 118 3
11 119 8
11 122 5
11 124 1
11 127 9
11 138 8
11 140 2
11 154 2
11 155 3
11 156 6
11 157 9
11 161 6
11 163 3
11 168 6
11 169 7
11 170 7
11 176 3
11 184 7
11 188 8
11 192 1
11 197 8
12 13 8
12 14 4
12 16 6
12 20 10
12 21 9
12 22 1
12 30 9
12 32 3
12 33 2
12 34 5
12 36 8
12 38 6
12 44 3
12 47 3
12 48 3
12 51 4
12 53 6
12 54 1
12 59 10
12 61 8
12 65 6
12 67 8
12 69 4
12 73 1
12 77 4
12 80 10
12 81 10
12 83 9
12 86 4
12 87 10
12 92 1
12 94 3
12 96 1
12 101 5
12 102 2
12 110 5
12 111 1
12 114 6
12 116 6
12 120 8
12 122 3
12 123 8
12 124 10
12 125 8
12 126 5
12 130 5
12 134 4
12 135 10
12 138 5
12 141 9
12 142 9
12 144 10
12 147 3
12 150 2
12 153 6
12 156 9
12 163 7
12 166 5
12 174 3
12 176 3
12 177 2
12 178 10
12 181 5
12 184 6
12 186 1
12 194 7
13 16 3
13 21 10
13 23 5
13 24 9
13 25 6
13 32 10
13 35 10
13 38 4
13 39 3
13 43 1
13 44 8
13 46 4
13 49 8
13 55 1
13 57 1
13 58 7
13 59 5
13 61 3
13 72 10
13 75 6
13 77 10
13 82 3
13 85 7
13 86 5
13 90 4
13 92 6
13 96 7
13 99 8
13 103 4
13 105 7
13 107 10
13 116 6
13 123 1
13 126 8
13 128 8
13 130 4
13 135 7
13 140 4
13 144 6
13 145 4
13 151 6
13 154 4
13 158 3
13 160 5
13 164 4
13 167 4
13 168 1
13 171 5
13 172 3
13 176 9
13 179 4
13 183 3
13 186 9
13 188 8
13 189 3
13 198 10
13 199 5
14 22 9
14 23 1
14 25 10
14 26 5
14 29 10
14 33 8
14 35 1
14 45 1
14 51 7
14 53 7
14 56 4
14 57 7
14 59 6
14 61 1
14 66 10
14 67 7
14 71 3
14 73 9
14 76 9
14 94 7
14 95 7
14 96 2
14 98 8
14 102 2
14 107 4
14 116 3
14 119 4
14 123 8
14 124 5
14 128 7
14 131 9
14 139 9
14 146 7
14 148 7
14 153 6
14 159 3
14 163 7
14 165 7
14 172 7
14 173 8
14 184 3
14 186 5
14 189 1
14 190 4
14 193 2
14 195 6
15 17 5
15 18 9
15 19 6
15 20 6
15 24 10
15 29 3
15 31 7
15 33 1
15 34 3
15 35 9
15 42 8
15 45 10
15 51 2
15 54 9
15 56 5
15 63 8
15 65 6
15 68 9
15 70 5
15 73 1
15 74 5
15 78 9
15 83 6
15 84 8
15 85 9
15 89 10
15 92 1
15 105 3
15 110 1
15 111 3
15 122 1
15 123 9
15 129 1
15 131 1
15 134 7
15 135 8
15 139 7
15 141 6
15 143 4
15 146 3
15 152 2
15 158 5
15 160 10
15 162 6
15 165 3
15 167 4
15 168 9
15 175 1
15 176 7
15 177 1
15 180 1
15 184 4
15 186 8
15 187 7
15 190 3
15 191 6
15 195 5
15 197 3
15 199 2
16 20 3
16 24 8
16 27 8
16 35 9
16 38 10
16 41 10
16 42 10
16 43 4
16 46 1
16 49 8
16 51 5
16 55 4
16 57 4
16 58 7
16 60 1
16 62 4
16 65 2
16 66 3
16 70 1
16 72 2
16 79 6
16 80 5
16 85 8
16 89 3
16 90 5
16 97 7
16 110 5
16 115 1
16 119 8
16 120 1
16 122 9
16 125 2
16 126 8
16 127 7
16 147 2
16 148 6
16 150 6
16 156 5
16 157 10
16 159 5
16 160 4
16 175 8
16 181 3
16 182 8
16 183 1
16 184 3
16 189 10
16 190 3
16 191 9
16 193 8
16 199 10
17 23 2
17 24 2
17 25 4
17 30 8
17 31 10
17 32 8
17 36 7
17 37 1
17 38 9
17 39 4
17 40 3
17 41 3
17 49 9
17 53 10
17 55 3
17 59 10
17 61 1
17 71 4
17 72 10
17 74 8
17 78 8
17 82 5
17 90 1
17 94 2
17 95 10
17 98 3
17 101 6
17 102 6
17 109 6
17 111 3
17 113 10
17 114 6
17 116 7
17 120 2
17 125 8
17 129 7
17 132 8
17 133 8
17 137 7
17 150 9
17 151 1
17 153 2
17 155 3
17 159 9
17 169 1
17 172 10
17 174 4
17 175 1
17 177 7
17 178 10
17 180 6
17 182 8
17 186 7
17 187 10
17 189 8
17 196 10
17 197 1
17 198 4
18 19 6
18 20 3
18 27 1
18 30 9
18 31 3
18 35 5
18 36 8
18 37 5
18 41 8
18 46 6
18 48 2
18 58 3
18 64 7
18 68 6
18 69 7
18 70 6
18 71 3
18 74 10
18 75 3
18 76 8
18 78 7
18 85 5
18 86 4
18 89 2
18 94 6
18 96 5
18 97 4
18 98 2
18 103 8
18 110 1
18 111 8
18 113 5
18 117 6
18 123 10
18 124 3
18 125 3
18 128 4
18 130 9
18 131 3
18 137 7
18 143 7
18 144 8
18 148 1
18 154 6
18 155 9
18 159 2
18 163 4
18 167 10
18 170 2
18 172 4
18 173 3
18 174 9
18 175 9
18 178 5
18 185 4
18 187 8
18 193 7
18 200 1
19 21 10
19 24 3
19 27 7
19 30 6
19 34 3
19 38 5
19 45 1
19 49 9
19 54 6
19 56 3
19 58 8
19 59 6
19 60 5
19 63 3
19 75 2
19 79 9
19 81 10
19 92 10
19 98 8
19 99 3
19 101 1
19 102 3
19 103 3
19 104 2
19 111 9
19 117 1
19 119 3
19 120 2
19 121 5
19 122 9
19 123 1
19 125 9
19 128 8
19 129 10
19 132 1
19 136 6
19 139 9
19 148 2
19 151 7
19 153 7
19 169 4
19 171 4
19 175 3
19 176 7
19 179 3
19 181 6
19 186 2
19 190 1
19 191 2
20 24 8
20 25 8
20 27 8
20 30 5
20 32 3
20 33 6
20 37 8
20 40 4
20 42 10
20 43 8
20 47 4
20 48 4
20 50 8
20 51 4
20 54 7
20 57 6
20 61 5
20 64 2
20 65 1
20 69 9
20 70 7
20 72 5
20 75 1
20 78 3
20 83 3
20 87 2
20 94 1
20 97 1
20 106 3
20 110 4
20 113 5
20 118 4
20 125 7
20 127 10
20 128 10
20 129 3
20 136 8
20 137 3
20 138 2
20 143 4
20 146 4
20 154 9
20 158 3
20 166 2
20 169 8
20 173 10
20 174 9
20 175 5
20 180 8
20 182 5
20 183 9
20 185 10
20 186 10
20 194 6
20 199 10
21 24 10
21 33 5
21 34 5
21 39 8
21 43 4
21 47 8
21 48 2
21 50 9
21 51 4
21 55 8
21 63 9
21 65 6
21 67 8
21 68 2
21 69 8
21 72 1
21 78 8
21 87 9
21 90 2
21 94 1
21 97 8
21 105 6
21 111 6
21 113 5
21 116 5
21 119 2
21 121 8
21 122 2
21 124 1
21 135 10
21 138 8
21 139 5
21 142 4
21 144 9
21 145 9
21 150 3
21 162 6
21 163 1
21 165 9
21 167 5
21 171 10
21 172 7
21 173 10
21 176 7
21 184 6
21 191 1
21 192 2
21 196 3
21 199 8
22 26 6
22 31 6
22 32 3
22 34 6
22 40 3
22 42 6
22 44 7
22 45 10
22 47 8
22 48 7
22 51 7
22 63 3
22 64 5
22 65 3
22 67 5
22 73 3
22 74 1
22 78 2
22 79 7
22 81 9
22 83 5
22 86 6
22 88 9
22 91 7
22 94 8
22 96 4
22 98 5
22 104 4
22 107 6
22 110 5
22 111 9
22 114 3
22 126 1
22 127 10
22 131 5
22 138 1
22 139 3
22 144 7
22 145 10
22 151 3
22 156 8
22 158 1
22 160 5
22 163 6
22 166 1
22 175 10
22 176 6
22 179 3
22 182 9
22 187 4
22 190 9
22 191 2
22 197 3
22 198 2
22 199 8
23 31 4
23 32 2
23 37 5
23 38 2
23 39 5
23 40 4
23 43 9
23 45 8
23 51 4
23 54 8
23 59 1
23 60 5
23 62 6
23 72 1
23 73 9
23 74 2
23 79 3
23 85 9
23 87 6
23 88 3
23 89 3
23 91 10
23 100 10
23 104 4
23 106 6
23 108 4
23 110 5
23 111 3
23 119 10
23 124 3
23 127 2
23 128 6
23 129 7
23 132 7
23 134 7
23 138 8
23 139 4
23 145 7
23 151 1
23 152 8
23 156 1
23 162 4
23 167 5
23 173 5
23 174 9
23 180 2
23 181 9
23 182 1
23 184 8
23 188 3
23 191 8
23 194 3
23 196 10
24 29 7
24 34 9
24 41 7
24 44 7
24 46 6
24 47 6
24 48 3
24 52 10
24 57 9
24 60 5
24 64 10
24 68 3
24 71 3
24 72 1
24 73 5
24 76 3
24 81 8
24 84 10
24 85 7
24 91 8
24 92 7
24 93 5
24 100 5
24 102 6
24 104 10
24 105 10
24 108 5
24 111 6
24 113 9
24 115 6
24 117 6
24 118 8
24 120 10
24 130 10
24 138 7
24 139 9
24 142 8
24 145 8
24 147 1
24 148 6
24 153 8
24 155 6
24 158 6
24 170 1
24 171 8
24 174 6
24 175 8
24 178 9
24 182 8
24 185 5
24 189 7
24 192 10
24 197 1
24 199 5
25 31 7
25 32 2
25 33 6
25 43 7
25 47 4
25 48 5
25 54 1
25 58 10
25 60 6
25 63 3
25 64 7
25 68 6
25 69 5
25 76 9
25 77 10
25 80 4
25 81 9
25 97 7
25 98 3
25 103 6
25 105 7
25 107 2
25 123 7
25 125 9
25 127 9
25 138 2
25 146 3
25 147 6
25 148 2
25 153 7
25 154 6
25 156 6
25 163 3
25 168 7
25 172 4
25 178 4
25 181 1
25 192 7
25 193 10
25 196 5
25 199 4
25 200 10
26 44 2
26 48 8
26 51 7
26 55 7
26 58 7
26 59 6
26 62 8
26 64 7
26 65 10
26 70 8
26 72 5
26 77 4
26 78 9
26 81 8
26 83 6
26 89 8
26 90 4
26 92 1
26 98 6
26 100 8
26 101 10
26 102 10
26 109 6
26 110 2
26 112 3
26 113 2
26 117 6
26 120 3
26 124 2
26 126 4
26 127 5
26 129 9
26 130 8
26 131 10
26 133 9
26 138 3
26 139 9
26 145 2
26 147 1
26 151 5
26 152 4
26 154 1
26 162 5
26 165 1
26 168 5
26 174 3
26 182 6
26 188 8
26 190 10
26 197 8
27 33 2
27 39 10
27 40 2
27 41 4
27 43 9
27 45 1
27 47 8
27 52 9
27 53 4
27 54 9
27 55 5
27 57 4
27 62 9
27 68 4
27 70 6
27 71 1
27 75 6
27 76 9
27 83 5
27 85 7
27 86 6
27 87 8
27 91 4
27 101 10
27 102 8
27 103 5
27 108 2
27 111 9
27 112 5
27 113 7
27 114 1
27 117 9
27 127 6
27 129 7
27 131 1
27 132 6
27 138 4
27 141 10
27 143 5
27 145 4
27 147 8
27 149 10
27 150 6
27 152 1
27 153 10
27 158 6
27 161 1
27 172 8
27 173 6
27 177 8
27 178 10
27 189 2
27 193 1
27 194 8
27 196 1
27 197 10
28 30 8
28 31 4
28 33 10
28 34 6
28 40 2
28 43 10
28 56 2
28 62 2
28 63 2
28 68 1
28 71 6
28 72 6
28 75 2
28 76 6
28 79 9
28 81 4
28 82 10
28 86 5
28 92 5
28 94 8
28 95 8
28 98 9
28 102 2
28 104 5
28 109 1
28 113 10
28 118 8
28 119 5
28 130 8
28 133 2
28 135 5
28 137 5
28 145 7
28 146 7
28 149 7
28 159 6
28 161 9
28 163 2
28 166 9
28 171 6
28 173 10
28 177 9
28 179 3
28 186 2
28 189 3
28 190 4
28 194 10
28 195 4
29 30 8
29 34 5
29 37 3
29 48 9
29 50 1
29 56 8
29 60 4
29 61 8
29 63 7
29 64 4
29 69 6
29 77 8
29 80 8
29 85 7
29 86 2
29 92 8
29 94 9
29 100 7
29 102 10
29 105 3
29 107 2
29 110 7
29 112 4
29 116 1
29 120 3
29 121 4
29 122 10
29 126 1
29 127 2
29 129 9
29 131 9
29 132 2
29 137 4
29 138 1
29 139 2
29 141 1
29 145 4
29 149 3
29 153 7
29 154 2
29 158 2
29 159 1
29 160 2
29 173 5
29 174 9
29 175 1
29 187 2
29 188 7
29 191 4
29 193 7
29 195 5
29 197 1
29 198 7
29 200 7
30 33 3
30 37 4
30 38 9
30 46 5
30 51 8
30 53 9
30 57 4
30 59 6
30 60 8
30 65 8
30 66 1
30 69 2
30 71 1
30 72 10
30 74 1
30 79 6
30 83 2
30 88 5
30 95 10
30 99 6
30 105 7
30 108 1
30 115 2
30 118 8
30 124 4
30 125 4
30 126 1
30 133 5
30 138 5
30 142 4
30 146 3
30 152 2
30 155 1
30 157 4
30 159 7
30 161 1
30 162 10
30 178 8
30 179 6
30 181 9
30 190 8
30 191 2
30 193 2
30 195 4
30 199 7
30 200 6
31 33 3
31 36 7
31 40 7
31 45 4
31 46 2
31 47 2
31 49 3
31 50 6
31 64 4
31 76 4
31 78 5
31 89 5
31 90 8
31 91 8
31 97 10
31 106 4
31 110 5
31 114 9
31 116 6
31 121 4
31 125 7
31 128 4
31 135 5
31 138 1
31 142 2
31 144 7
31 146 2
31 152 4
31 155 8
31 159 5
31 163 10
31 169 6
31 174 3
31 175 8
31 176 6
31 177 3
31 179 9
31 182 6
31 184 9
31 193 8
31 199 7
32 34 8
32 35 8
32 36 4
32 38 4
32 47 2
32 48 5
32 51 10
32 55 10
32 62 1
32 65 8
32 66 10
32 68 4
32 73 10
32 74 9
32 81 3
32 82 5
32 84 10
32 89 3
32 91 8
32 96 7
32 100 1
32 102 6
32 106 10
32 107 9
32 109 5
32 112 6
32 115 6
32 118 6
32 126 8
32 127 3
32 129 2
32 131 7
32 135 7
32 138 4
32 142 2
32 147 9
32 149 9
32 152 5
32 154 3
32 156 7
32 158 10
32 164 3
32 167 3
32 170 9
32 175 3
32 177 1
32 182 10
32 187 5
32 192 9
32 194 10
32 200 3
33 34 9
33 36 1
33 37 6
33 40 10
33 47 6
33 48 2
33 50 2
33 52 4
33 54 8
33 57 8
33 63 2
33 65 8
33 66 7
33 69 1
33 72 7
33 74 6
33 76 5
33 78 8
33 79 2
33 80 3
33 87 8
33 89 10
33 95 3
33 102 4
33 104 2
33 110 9
33 112 4
33 113 2
33 115 7
33 116 7
33 119 5
33 121 8
33 126 8
33 127 4
33 128 4
33 131 8
33 136 7
33 140 1
33 141 6
33 145 6
33 151 8
33 155 4
33 160 2
33 162 4
33 166 6
33 167 1
33 171 5
33 172 1
33 173 5
33 175 5
33 180 5
33 183 1
33 184 1
33 185 1
33 190 6
33 196 8
33 198 1
34 35 9
34 42 8
34 43 10
34 44 5
34 46 1
34 51 4
34 53 6
34 54 1
34 55 5
34 57 3
34 66 3
34 68 5
34 72 10
34 74 5
34 77 6
34 78 2
34 79 4
34 81 6
34 83 7
34 84 5
34 86 4
34 95 7
34 96 5
34 103 3
34 106 3
34 110 6
34 116 1
34 117 6
34 126 6
34 129 9
34 130 2
34 134 7
34 139 1
34 143 3
34 152 9
34 159 8
34 160 6
34 161 7
34 168 6
34 169 7
34 174 7
34 180 1
34 181 3
34 183 4
34 187 2
34 192 2
34 194 2
34 200 2
35 38 3
35 44 5
35 51 6
35 52 10
35 53 8
35 54 7
35 55 9
35 57 8
35 59 2
35 62 10
35 66 10
35 85 5
35 87 5
35 100 9
35 101 7
35 107 10
35 108 10
35 114 3
35 118 3
35 119 9
35 121 1
35 125 8
35 128 6
35 131 5
35 133 8
35 135 1
35 136 2
35 153 1
35 158 4
35 159 8
35 171 9
35 172 8
35 179 2
35 180 10
35 184 6
35 186 2
36 38 9
36 41 8
36 42 1
36 43 2
36 44 4
36 52 2
36 53 4
36 57 5
36 63 6
36 64 7
36 65 2
36 66 3
36 67 10
36 71 1
36 72 3
36 74 2
36 75 2
36 77 3
36 82 6
36 85 1
36 86 2
36 87 7
36 91 2
36 95 8
36 97 3
36 103 9
36 104 6
36 106 5
36 107 8
36 116 2
36 117 8
36 118 7
36 120 6
36 122 4
36 123 6
36 130 8
36 133 4
36 134 7
36 141 2
36 143 3
36 146 4
36 147 1
36 153 10
36 154 3
36 155 10
36 159 8
36 162 4
36 163 2
36 166 7
36 171 10
36 174 4
36 175 6
36 176 4
36 181 7
36 188 6
36 193 5
36 199 5
37 43 3
37 44 2
37 47 3
37 54 8
37 55 6
37 57 2
37 59 9
37 63 5
37 65 4
37 71 8
37 72 10
37 76 10
37 78 8
37 81 3
37 82 2
37 85 4
37 88 1
37 90 4
37 91 7
37 93 2
37 95 1
37 96 2
37 98 4
37 101 2
37 103 7
37 105 2
37 106 9
37 109 6
37 113 3
37 115 7
37 119 6
37 120 9
37 121 5
37 124 8
37 126 1
37 136 5
37 137 8
37 138 3
37 147 9
37 150 3
37 152 5
37 155 9
37 158 3
37 163 5
37 164 1
37 173 10
37 175 6
37 176 10
37 177 10
37 182 10
37 191 4
37 194 2
37 198 1
37 199 8
38 46 3
38 47 1
38 49 2
38 50 9
38 51 7
38 55 4
38 56 8
38 57 6
38 63 9
38 68 8
38 73 9
38 79 7
38 85 5
38 88 4
38 90 3
38 94 5
38 97 5
38 100 5
38 102 4
38 103 4
38 106 9
38 107 1
38 111 5
38 116 9
38 122 3
38 125 10
38 127 3
38 131 8
38 132 9
38 133 7
38 134 5
38 136 4
38 147 10
38 150 7
38 154 9
38 155 3
38 171 8
38 172 7
38 175 10
38 178 9
38 181 1
38 184 5
38 186 10
39 40 2
39 41 1
39 47 1
39 50 2
39 54 8
39 56 5
39 58 1
39 62 2
39 65 4
39 68 8
39 69 9
39 71 6
39 72 5
39 73 5
39 77 1
39 83 5
39 87 10
39 90 7
39 93 4
39 95 6
39 98 10
39 111 5
39 113 8
39 115 2
39 119 9
39 131 9
39 138 2
39 140 9
39 143 2
39 155 9
39 158 1
39 163 1
39 169 7
39 172 4
39 180 2
39 181 5
39 182 6
39 189 2
39 199 7
40 41 10
40 44 2
40 46 1
40 50 1
40 54 8
40 61 6
40 67 6
40 69 2
40 71 1
40 75 2
40 77 5
40 82 9
40 84 3
40 85 7
40 88 7
40 95 9
40 96 9
40 104 9
40 109 7
40 116 4
40 121 5
40 124 2
40 129 3
40 139 1
40 142 8
40 143 5
40 144 2
40 151 1
40 153 10
40 154 8
40 155 3
40 161 7
40 163 1
40 164 5
40 171 9
40 173 1
40 176 10
40 177 6
40 179 7
40 184 3
40 186 4
40 187 2
40 191 8
40 198 8
41 44 6
41 45 5
41 46 4
41 55 1
41 58 1
41 59 3
41 63 5
41 64 8
41 66 5
41 68 6
41 69 8
41 75 8
41 84 4
41 90 10
41 92 4
41 103 5
41 104 9
41 107 6
41 108 6
41 116 9
41 124 10
41 126 1
41 127 1
41 128 4
41 129 2
41 134 10
41 137 1
41 138 5
41 140 1
41 143 4
41 145 7
41 151 3
41 152 1
41 154 9
41 157 9
41 158 9
41 163 10
41 168 9
41 173 2
41 174 1
41 176 9
41 177 9
41 179 9
41 180 4
41 181 9
41 193 4
42 44 7
42 47 8
42 48 4
42 54 6
42 55 9
42 57 8
42 59 3
42 60 10
42 67 2
42 68 4
42 71 3
42 72 10
42 76 9
42 78 3
42 79 7
42 88 3
42 90 2
42 94 4
42 98 2
42 101 2
42 106 4
42 107 3
42 109 3
42 112 3
42 115 10
42 126 2
42 127 1
42 129 4
42 131 4
42 134 3
42 136 8
42 139 5
42 141 6
42 143 1
42 146 6
42 149 7
42 153 5
42 155 10
42 161 2
42 172 10
42 175 7
42 176 1
42 181 8
42 183 7
42 184 6
42 185 1
42 189 6
42 190 3
43 48 7
43 49 3
43 50 1
43 66 1
43 72 1
43 73 3
43 76 8
43 80 1
43 81 9
43 88 1
43 93 4
43 114 2
43 117 7
43 122 5
43 124 5
43 125 2
43 127 3
43 130 6
43 132 5
43 135 9
43 136 3
43 139 8
43 144 7
43 145 2
43 156 10
43 157 9
43 158 10
43 160 1
43 167 10
43 169 6
43 174 9
43 177 3
43 181 5
43 183 8
43 187 10
43 189 6
43 191 7
43 192 5
43 195 10
43 198 3
44 51 10
44 56 7
44 58 2
44 69 2
44 72 1
44 74 1
44 75 9
44 77 3
44 80 1
44 82 1
44 83 4
44 84 3
44 85 1
44 88 9
44 89 1
44 92 4
44 94 10
44 96 2
44 98 10
44 105 5
44 110 4
44 111 9
44 113 10
44 114 10
44 115 10
44 119 1
44 123 9
44 126 6
44 127 1
44 129 4
44 130 4
44 142 3
44 146 3
44 152 8
44 154 4
44 157 9
44 158 2
44 167 5
44 168 2
44 171 8
44 175 4
44 179 5
44 185 5
44 186 2
45 47 3
45 51 1
45 52 10
45 55 6
45 61 9
45 63 10
45 64 7
45 65 3
45 74 8
45 77 5
45 79 9
45 80 1
45 83 10
45 87 7
45 89 2
45 92 9
45 97 9
45 98 5
45 101 6
45 104 7
45 105 3
45 106 1
45 112 8
45 115 6
45 118 7
45 119 10
45 122 1
45 125 1
45 126 4
45 132 8
45 135 4
45 143 5
45 145 9
45 149 1
45 150 5
45 154 9
45 159 9
45 160 7
45 161 10
45 164 6
45 165 4
45 166 3
45 167 6
45 171 6
45 172 9
45 173 9
45 175 9
45 176 8
45 178 2
45 179 10
45 180 8
45 183 7
45 186 5
45 187 8
45 191 9
45 192 5
45 193 6
45 196 1
45 199 8
45 200 8
46 52 7
46 55 5
46 56 7
46 59 1
46 60 5
46 64 9
46 67 7
46 69 6
46 71 10
46 78 2
46 83 9
46 91 3
46 95 9
46 96 7
46 98 3
46 106 8
46 107 2
46 108 9
46 109 3
46 121 2
46 122 4
46 123 1
46 125 2
46 136 2
46 137 6
46 142 9
46 143 10
46 148 4
46 155 5
46 158 4
46 170 10
46 173 4
46 175 2
46 178 2
46 179 3
46 180 6
46 181 2
46 185 7
46 194 6
46 195 5
47 51 10
47 53 1
47 54 7
47 59 3
47 62 4
47 63 10
47 65 7
47 66 5
47 68 7
47 70 1
47 71 2
47 75 9
47 79 6
47 80 10
47 82 3
47 91 7
47 95 4
47 97 2
47 104 5
47 112 6
47 119 6
47 120 10
47 122 4
47 126 4
47 129 5
47 132 6
47 136 3
47 140 2
47 145 7
47 150 2
47 151 10
47 158 8
47 160 8
47 164 8
47 169 7
47 173 7
47 175 4
47 183 9
47 195 2
47 199 3
48 51 7
48 52 7
48 56 2
48 57 1
48 62 8
48 63 6
48 64 10
48 65 5
48 66 3
48 68 9
48 72 4
48 73 1
48 75 1
48 76 3
48 79 10
48 80 6
48 81 2
48 82 7
48 89 8
48 90 3
48 92 7
48 93 8
48 94 2
48 96 4
48 97 9
48 99 8
48 100 9
48 102 4
48 103 8
48 104 10
48 105 3
48 106 1
48 109 6
48 111 3
48 112 3
48 113 7
48 116 10
48 117 9
48 119 5
48 120 4
48 124 4
48 126 10
48 128 9
48 131 8
48 134 3
48 135 8
48 138 7
48 151 2
48 154 1
48 158 4
48 164 4
48 165 6
48 169 5
48 170 9
48 187 9
48 191 10
48 192 7
48 193 9
48 197 4
49 54 9
49 57 2
49 65 6
49 66 9
49 69 10
49 74 2
49 76 5
49 78 9
49 80 9
49 83 3
49 87 8
49 90 1
49 92 9
49 93 2
49 94 4
49 105 5
49 111 3
49 114 4
49 118 4
49 120 9
49 124 4
49 127 3
49 129 7
49 132 5
49 136 10
49 139 1
49 143 10
49 146 4
49 147 1
49 149 10
49 151 8
49 153 10
49 155 10
49 157 9
49 165 6
49 168 8
49 169 1
49 171 8
49 173 8
49 174 9
49 178 5
49 187 10
49 189 5
49 190 2
49 193 1
49 196 2
49 200 8
50 53 2
50 54 7
50 61 2
50 62 6
50 70 5
50 75 8
50 77 7
50 90 3
50 96 1
50 98 7
50 103 10
50 112 2
50 114 9
50 115 7
50 116 6
50 118 1
50 124 7
50 125 8
50 126 6
50 127 2
50 131 8
50 132 5
50 137 10
50 143 4
50 144 6
50 154 3
50 157 9
50 159 6
50 172 6
50 174 5
50 176 7
50 181 4
50 187 1
50 190 2
50 194 5
50 196 3
50 198 6
50 199 3
51 52 9
51 57 4
51 59 10
51 60 1
51 61 7
51 63 8
51 65 9
51 71 6
51 73 9
51 74 2
51 76 2
51 81 5
51 88 10
51 89 2
51 90 8
51 97 1
51 103 1
51 110 7
51 113 9
51 115 10
51 118 1
51 120 1
51 126 10
51 127 1
51 128 3
51 130 5
51 132 10
51 137 1
51 138 8
51 139 7
51 142 6
51 144 6
51 146 3
51 150 10
51 153 2
51 154 7
51 157 10
51 162 2
51 163 10
51 164 3
51 165 6
51 169 7
51 171 6
51 176 2
51 182 10
51 185 7
51 187 4
51 189 4
51 191 6
51 193 6
51 194 5
51 196 5
51 197 3
51 199 7
52 57 10
52 60 3
52 80 1
52 81 4
52 82 7
52 83 1
52 86 5
52 87 1
52 89 4
52 91 8
52 92 10
52 95 10
52 97 9
52 104 9
52 105 6
52 107 8
52 108 3
52 109 9
52 117 6
52 119 9
52 121 6
52 124 1
52 127 9
52 129 7
52 136 7
52 138 6
52 139 3
52 140 9
52 146 7
52 148 10
52 149 6
52 150 6
52 153 4
52 155 10
52 158 8
52 159 6
52 165 9
52 166 1
52 167 3
52 169 2
52 170 3
52 172 5
52 173 2
52 184 7
52 185 2
52 186 7
52 188 10
52 192 7
52 198 3
53 54 10
53 59 8
53 60 9
53 63 5
53 67 8
53 76 8
53 78 7
53 84 8
53 87 5
53 90 6
53 94 5
53 95 5
53 100 5
53 101 8
53 104 9
53 105 8
53 119 2
53 120 5
53 121 9
53 124 10
53 127 6
53 130 8
53 132 2
53 136 9
53 137 5
53 143 5
53 145 10
53 149 7
53 154 3
53 155 3
53 158 4
53 160 7
53 164 5
53 165 10
53 167 3
53 170 1
53 171 2
53 173 8
53 177 4
53 179 7
53 181 2
53 186 9
53 188 1
53 190 1
53 192 7
53 194 7
53 197 1
54 58 7
54 59 1
54 60 9
54 65 2
54 66 1
54 75 5
54 79 5
54 92 4
54 95 4
54 97 10
54 98 9
54 109 1
54 113 2
54 116 3
54 117 4
54 118 8
54 119 7
54 127 10
54 129 1
54 130 3
54 133 6
54 134 4
54 138 2
54 139 6
54 141 2
54 143 6
54 145 8
54 146 2
54 151 6
54 154 4
54 157 5
54 161 7
54 166 2
54 168 7
54 174 3
54 177 7
54 178 9
54 179 10
54 180 7
54 181 4
54 182 7
54 184 2
54 190 9
54 191 10
54 196 5
54 199 9
55 57 2
55 58 3
55 60 8
55 61 4
55 69 6
55 74 8
55 76 4
55 79 10
55 81 9
55 94 1
55 95 6
55 96 9
55 102 10
55 108 10
55 113 6
55 115 8
55 117 9
55 119 2
55 124 6
55 125 3
55 126 7
55 127 8
55 128 7
55 137 3
55 139 2
55 141 7
55 151 8
55 158 5
55 159 9
55 161 9
55 164 5
55 169 8
55 171 10
55 181 4
55 184 3
55 186 5
55 187 9
55 191 8
55 197 5
56 57 3
56 60 4
56 63 5
56 65 1
56 66 5
56 67 4
56 71 7
56 75 7
56 79 6
56 80 10
56 83 5
56 84 1
56 85 5
56 88 7
56 93 5
56 94 10
56 95 5
56 106 4
56 107 10
56 110 8
56 111 4
56 114 1
56 115 4
56 119 8
56 121 10
56 122 10
56 126 9
56 131 1
56 138 9
56 145 9
56 146 7
56 151 7
56 153 3
56 154 2
56 156 4
56 163 7
56 164 5
56 166 1
56 169 6
56 178 7
56 183 10
56 184 6
56 185 1
56 187 10
56 193 8
56 196 2
57 58 7
57 59 10
57 64 4
57 65 7
57 68 2
57 69 9
57 71 4
57 74 6
57 75 1
57 76 5
57 79 7
57 83 6
57 88 8
57 91 9
57 92 6
57 95 6
57 96 5
57 97 6
57 103 9
57 105 6
57 108 9
57 109 10
57 120 10
57 122 1
57 125 2
57 129 4
57 133 8
57 137 5
57 142 2
57 147 9
57 152 9
57 154 4
57 172 4
57 173 9
57 174 3
57 178 3
57 179 3
57 180 5
57 181 4
57 184 9
57 189 7
57 190 8
57 192 3
57 193 5
57 194 3
57 200 1
58 59 3
58 61 9
58 62 1
58 65 3
58 67 9
58 68 7
58 75 8
58 80 8
58 81 8
58 82 10
58 85 6
58 86 5
58 90 3
58 94 9
58 95 10
58 98 7
58 101 6
58 104 3
58 106 7
58 107 3
58 110 9
58 111 9
58 114 4
58 117 1
58 120 3
58 130 6
58 131 3
58 133 7
58 134 9
58 135 2
58 138 8
58 141 4
58 142 6
58 144 6
58 145 5
58 149 10
58 151 6
58 159 6
58 160 3
58 169 2
58 170 10
58 173 5
58 175 6
58 181 2
58 182 1
58 188 10
58 194 9
58 195 10
59 61 3
59 70 4
59 73 2
59 76 1
59 77 4
59 79 4
59 84 7
59 87 5
59 91 4
59 93 2
59 98 5
59 102 6
59 106 10
59 112 7
59 113 5
59 114 2
59 115 4
59 118 2
59 120 10
59 123 1
59 124 2
59 127 7
59 128 8
59 130 10
59 132 4
59 135 3
59 138 8
59 141 1
59 157 7
59 165 2
59 168 8
59 169 7
59 173 4
59 177 2
59 179 3
59 180 8
59 181 6
59 182 1
59 189 10
59 193 7
59 195 9
60 61 7
60 65 9
60 67 10
60 70 9
60 71 5
60 80 9
60 87 7
60 97 3
60 98 5
60 103 1
60 104 1
60 107 9
60 109 6
60 110 6
60 114 2
60 122 8
60 124 5
60 128 8
60 140 1
60 144 7
60 147 6
60 149 9
60 153 4
60 154 9
60 158 8
60 159 10
60 165 2
60 166 6
60 168 1
60 170 4
60 171 9
60 177 2
60 183 10
60 191 10
60 192 2
60 196 4
60 197 5
60 200 8
61 64 6
61 71 3
61 74 8
61 75 1
61 77 3
61 78 3
61 84 7
61 85 3
61 87 5
61 93 9
61 101 4
61 104 8
61 105 9
61 106 7
61 108 4
61 113 5
61 114 2
61 117 6
61 118 2
61 124 8
61 126 5
61 129 7
61 131 9
61 140 9
61 153 5
61 156 6
61 161 9
61 165 2
61 166 10
61 167 7
61 168 6
61 169 9
61 171 1
61 173 10
61 174 10
61 183 8
61 187 1
61 189 1
61 190 2
61 191 9
61 192 6
61 194 1
61 198 4
62 64 6
62 65 5
62 70 6
62 75 8
62 79 10
62 80 4
62 89 1
62 90 6
62 91 1
62 93 3
62 96 3
62 97 1
62 98 9
62 102 10
62 103 7
62 106 3
62 107 9
62 109 1
62 113 6
62 121 1
62 125 6
62 130 2
62 133 7
62 137 2
62 142 9
62 146 5
62 147 8
62 153 2
62 154 7
62 161 1
62 162 1
62 166 8
62 168 5
62 173 5
62 175 5
62 177 10
62 182 5
62 185 3
62 187 5
62 190 1
62 191 4
62 195 6
62 196 8
62 200 2
63 68 10
63 72 10
63 73 2
63 74 4
63 79 4
63 82 8
63 85 1
63 89 1
63 100 2
63 102 9
63 104 3
63 109 6
63 112 4
63 123 2
63 126 10
63 129 7
63 134 7
63 135 8
63 140 7
63 146 5
63 148 5
63 152 6
63 153 8
63 155 7
63 158 7
63 168 4
63 169 8
63 171 4
63 173 9
63 176 5
63 177 8
63 178 10
63 184 1
63 189 1
64 66 2
64 71 7
64 72 8
64 76 5
64 79 2
64 80 7
64 85 4
64 88 1
64 98 4
64 101 1
64 102 6
64 123 4
64 124 10
64 126 4
64 134 4
64 136 1
64 144 7
64 145 6
64 146 3
64 149 6
64 155 6
64 157 6
64 163 8
64 167 9
64 169 2
64 184 5
64 187 2
64 188 9
64 191 9
64 193 4
64 194 6
64 197 3
65 66 3
65 70 2
65 73 7
65 78 7
65 79 9
65 83 1
65 86 7
65 88 5
65 90 10
65 96 1
65 99 1
65 102 6
65 106 7
65 110 4
65 112 3
65 113 4
65 117 4
65 119 7
65 121 5
65 122 10
65 126 8
65 131 3
65 132 6
65 135 6
65 136 2
65 141 8
65 142 1
65 144 9
65 145 9
65 149 6
65 153 3
65 161 4
65 168 3
65 171 6
65 172 2
65 173 5
65 175 3
65 176 10
65 178 3
65 180 4
65 183 1
65 184 8
65 185 7
65 187 2
65 189 7
65 190 7
65 191 4
65 193 5
65 194 5
66 70 2
66 73 2
66 74 9
66 76 10
66 82 1
66 87 9
66 89 4
66 91 10
66 95 7
66 97 2
66 99 6
66 102 5
66 103 3
66 104 5
66 105 10
66 106 5
66 108 10
66 111 3
66 112 5
66 113 2
66 115 3
66 116 3
66 122 7
66 124 10
66 127 1
66 128 4
66 132 8
66 138 10
66 140 9
66 145 5
66 154 5
66 155 5
66 156 1
66 158 10
66 160 2
66 161 10
66 164 10
66 166 2
66 168 5
66 170 2
66 172 2
66 173 6
66 175 4
66 176 5
66 180 3
66 184 9
66 186 3
66 187 5
66 190 1
66 192 9
66 195 5
66 196 2
66 197 10
67 69 9
67 73 7
67 75 3
67 77 10
67 83 4
67 84 6
67 87 6
67 94 8
67 102 8
67 106 8
67 108 3
67 111 5
67 121 8
67 126 10
67 132 3
67 139 1
67 145 2
67 148 7
67 152 9
67 154 4
67 156 2
67 158 8
67 162 10
67 163 1
67 165 7
67 169 9
67 171 9
67 174 7
67 181 9
67 185 7
67 186 8
67 187 6
67 193 4
67 195 7
67 198 5
67 199 9
68 70 1
68 72 6
68 73 1
68 76 2
68 82 9
68 85 10
68 86 9
68 87 6
68 88 7
68 97 6
68 101 10
68 103 8
68 104 6
68 107 1
68 110 1
68 113 5
68 114 7
68 118 6
68 126 4
68 127 10
68 128 5
68 131 5
68 133 10
68 136 8
68 138 7
68 146 6
68 148 4
68 149 1
68 150 1
68 153 3
68 154 7
68 156 10
68 159 2
68 161 3
68 163 3
68 166 4
68 169 5
68 171 9
68 177 7
68 178 4
68 180 6
68 182 5
68 183 7
68 189 10
68 191 4
68 193 1
68 195 3
68 198 5
68 200 10
69 70 2
69 71 6
69 72 9
69 75 2
69 78 7
69 85 6
69 87 10
69 89 1
69 93 9
69 94 8
69 95 10
69 97 3
69 98 6
69 100 1
69 102 4
69 106 8
69 109 8
69 110 1
69 111 4
69 115 8
69 116 5
69 118 7
69 136 8
69 140 9
69 144 1
69 150 9
69 153 6
69 164 6
69 167 4
69 168 9
69 172 7
69 173 10
69 179 4
69 182 10
69 186 5
69 188 9
69 190 2
69 194 9
69 198 7
70 71 8
70 74 4
70 77 7
70 78 5
70 79 7
70 84 6
70 87 1
70 90 6
70 95 2
70 98 9
70 99 4
70 107 5
70 117 1
70 127 7
70 134 9
70 137 4
70 144 7
70 145 9
70 147 6
70 156 5
70 161 7
70 163 4
70 165 2
70 166 8
70 168 1
70 182 10
70 183 3
70 184 2
70 190 9
70 191 5
70 195 3
70 198 6
71 72 5
71 77 8
71 79 3
71 80 1
71 81 6
71 85 6
71 88 6
71 94 1
71 95 1
71 97 8
71 98 6
71 99 3
71 101 8
71 102 6
71 106 9
71 109 3
71 112 10
71 114 3
71 119 6
71 120 8
71 122 8
71 125 9
71 127 5
71 139 6
71 140 10
71 143 6
71 145 4
71 148 6
71 156 1
71 157 2
71 159 6
71 163 10
71 164 2
71 176 6
71 177 4
71 180 3
71 189 10
71 191 8
71 193 3
71 199 8
71 200 5
72 76 1
72 77 1
72 78 4
72 85 6
72 87 1
72 93 7
72 94 8
72 96 7
72 99 4
72 101 7
72 102 2
72 103 4
72 104 10
72 108 8
72 110 8
72 111 10
72 115 2
72 118 7
72 120 2
72 121 8
72 124 8
72 125 1
72 129 2
72 131 3
72 134 2
72 139 4
72 141 8
72 142 5
72 144 10
72 146 5
72 148 8
72 163 8
72 172 7
72 173 9
72 174 5
72 179 3
72 180 10
72 185 5
72 190 3
72 192 3
72 193 4
72 200 3
73 78 9
73 81 3
73 82 2
73 88 10
73 97 9
73 106 6
73 108 1
73 116 9
73 118 8
73 125 10
73 126 6
73 130 7
73 141 6
73 150 3
73 153 4
73 154 9
73 155 2
73 161 5
73 164 6
73 169 3
73 170 6
73 174 4
73 175 5
73 178 2
73 181 9
73 182 10
73 191 1
73 194 9
73 196 8
73 198 3
73 199 7
74 86 5
74 89 9
74 90 2
74 91 6
74 92 3
74 97 8
74 104 2
74 106 4
74 112 5
74 115 10
74 117 5
74 127 9
74 128 8
74 129 10
74 131 9
74 134 9
74 143 7
74 145 7
74 147 8
74 151 6
74 155 3
74 156 6
74 162 9
74 163 6
74 164 10
74 167 2
74 175 5
74 184 5
74 192 7
74 199 1
74 200 8
75 76 2
75 78 6
75 80 6
75 86 9
75 89 7
75 95 6
75 96 7
75 99 1
75 103 7
75 106 5
75 107 4
75 109 10
75 119 6
75 123 5
75 124 5
75 125 3
75 127 4
75 135 4
75 144 2
75 147 5
75 154 8
75 156 3
75 160 2
75 161 3
75 168 10
75 173 3
75 179 10
75 187 8
75 190 2
75 191 9
75 193 4
75 195 8
75 197 5
75 199 5
76 80 2
76 82 7
76 83 4
76 90 3
76 91 1
76 92 8
76 93 6
76 99 6
76 102 6
76 103 8
76 109 7
76 112 10
76 113 8
76 120 7
76 122 10
76 124 8
76 125 2
76 127 7
76 134 8
76 136 6
76 142 6
76 144 6
76 145 9
76 149 2
76 158 4
76 160 2
76 164 6
76 165 10
76 167 6
76 169 1
76 171 5
76 172 1
76 176 4
76 183 5
76 184 10
76 185 3
76 187 2
76 190 9
76 191 2
76 193 7
76 198 3
76 200 4
77 79 4
77 83 7
77 88 4
77 91 9
77 92 4
77 93 6
77 100 2
77 103 1
77 106 4
77 108 1
77 114 7
77 115 1
77 132 6
77 134 10
77 136 7
77 140 10
77 143 2
77 144 10
77 148 1
77 150 5
77 151 6
77 152 9
77 153 7
77 154 10
77 158 7
77 159 6
77 160 1
77 162 2
77 166 6
77 167 2
77 170 4
77 171 3
77 175 5
77 177 7
77 179 7
77 180 5
77 181 4
77 183 4
77 189 4
77 190 7
77 192 1
78 79 3
78 81 4
78 83 6
78 84 3
78 86 2
78 88 3
78 90 7
78 91 6
78 94 5
78 95 9
78 98 4
78 101 9
78 102 1
78 107 3
78 110 6
78 111 6
78 115 9
78 121 6
78 122 4
78 134 5
78 138 6
78 149 2
78 152 6
78 154 1
78 155 6
78 162 8
78 164 8
78 166 1
78 169 6
78 175 3
78 177 1
78 181 5
78 182 6
78 185 5
78 186 7
78 193 4
78 196 4
78 197 2
79 88 8
79 96 4
79 98 6
79 106 2
79 107 3
79 108 5
79 113 10
79 114 8
79 119 3
79 120 10
79 124 7
79 126 10
79 128 5
79 129 3
79 134 4
79 147 4
79 149 2
79 151 2
79 153 8
79 154 10
79 159 2
79 160 1
79 169 10
79 170 4
79 175 9
79 180 10
79 181 1
79 182 1
79 183 1
79 185 10
79 186 7
79 191 9
79 198 7
80 82 7
80 85 4
80 88 2
80 91 6
80 93 8
80 95 2
80 99 10
80 112 7
80 113 1
80 119 8
80 125 7
80 128 8
80 129 4
80 130 10
80 131 5
80 134 4
80 136 3
80 138 8
80 139 5
80 142 10
80 143 2
80 148 1
80 149 8
80 150 7
80 151 10
80 154 1
80 156 1
80 162 2
80 163 4
80 167 7
80 168 9
80 170 8
80 182 6
80 188 10
80 190 6
80 194 8
80 198 5
81 92 9
81 93 10
81 94 5
81 97 10
81 98 10
81 102 5
81 104 5
81 107 3
81 112 5
81 116 4
81 118 7
81 126 5
81 136 8
81 137 6
81 140 4
81 141 6
81 144 8
81 148 5
81 149 1
81 151 4
81 153 2
81 154 5
81 167 10
81 170 7
81 171 2
81 175 8
81 178 4
81 180 10
81 181 6
81 184 4
81 193 4
81 195 3
81 196 6
81 197 1
81 199 1
82 86 10
82 90 2
82 91 7
82 92 9
82 102 8
82 103 7
82 107 9
82 108 9
82 110 8
82 121 7
82 123 5
82 127 9
82 129 2
82 135 7
82 136 9
82 140 2
82 146 1
82 148 3
82 149 8
82 152 5
82 155 2
82 156 9
82 160 3
82 161 8
82 162 6
82 163 6
82 165 6
82 168 2
82 173 1
82 176 3
82 182 1
82 185 10
82 186 2
82 191 1
82 194 7
82 195 5
83 87 2
83 92 7
83 94 5
83 95 9
83 96 4
83 97 4
83 100 9
83 102 5
83 106 9
83 110 1
83 112 1
83 114 3
83 115 1
83 116 9
83 127 6
83 132 2
83 141 7
83 144 7
83 147 4
83 148 2
83 150 10
83 151 6
83 159 7
83 160 5
83 163 2
83 167 3
83 168 6
83 173 9
83 174 4
83 176 6
83 177 7
83 178 9
83 182 10
83 183 10
83 185 6
83 187 6
84 86 8
84 88 8
84 89 9
84 92 1
84 94 8
84 95 2
84 97 4
84 98 6
84 103 8
84 104 5
84 107 7
84 108 9
84 110 4
84 114 1
84 116 8
84 119 2
84 121 6
84 124 9
84 127 8
84 129 8
84 130 9
84 142 3
84 146 6
84 148 6
84 149 6
84 150 10
84 151 4
84 159 4
84 163 4
84 165 7
84 166 10
84 173 9
84 175 2
84 179 1
84 185 10
84 188 5
84 193 4
84 195 9
85 87 6
85 89 9
85 90 7
85 92 4
85 93 8
85 97 7
85 99 8
85 101 9
85 103 2
85 104 4
85 108 3
85 110 7
85 111 7
85 112 9
85 115 5
85 116 9
85 117 8
85 121 1
85 122 9
85 127 10
85 128 8
85 134 6
85 143 10
85 145 8
85 151 1
85 154 2
85 155 5
85 159 2
85 160 10
85 162 1
85 167 1
85 168 6
85 175 5
85 176 8
85 185 9
85 187 8
85 189 2
85 199 9
86 88 1
86 91 7
86 93 6
86 94 3
86 105 4
86 114 10
86 121 2
86 124 5
86 128 5
86 129 6
86 133 4
86 134 10
86 142 4
86 148 7
86 154 8
86 162 8
86 163 5
86 168 10
86 173 7
86 178 7
86 179 4
86 181 1
86 185 3
86 192 6
86 193 4
86 194 8
87 89 7
87 96 5
87 98 4
87 100 9
87 106 7
87 108 4
87 110 7
87 111 2
87 112 7
87 119 8
87 134 3
87 136 6
87 138 5
87 143 2
87 145 7
87 147 7
87 148 8
87 150 10
87 153 1
87 156 10
87 157 3
87 158 1
87 159 7
87 164 7
87 166 7
87 169 10
87 170 1
87 177 10
87 178 6
87 182 4
87 183 1
87 189 2
87 193 6
87 199 10
88 89 6
88 90 7
88 105 10
88 106 4
88 115 1
88 117 7
88 118 10
88 121 5
88 125 7
88 127 8
88 130 1
88 132 4
88 135 5
88 138 8
88 140 1
88 146 9
88 153 2
88 154 9
88 155 6
88 158 9
88 161 7
88 162 7
88 163 4
88 167 2
88 168 8
88 169 2
88 170 10
88 176 6
88 184 2
88 188 1
88 190 7
88 192 3
88 193 7
88 200 2
89 94 10
89 95 7
89 97 5
89 100 1
89 102 9
89 107 4
89 111 2
89 115 6
89 122 7
89 123 4
89 124 4
89 125 1
89 129 8
89 131 4
89 133 10
89 135 7
89 138 2
89 144 3
89 145 4
89 150 3
89 151 8
89 153 7
89 156 3
89 157 7
89 159 7
89 162 7
89 163 9
89 164 9
89 166 6
89 170 4
89 182 1
89 184 4
89 186 6
89 189 9
89 195 6
90 92 3
90 93 7
90 95 6
90 96 9
90 97 6
90 106 6
90 112 6
90 116 10
90 118 7
90 123 8
90 124 5
90 126 7
90 128 5
90 136 9
90 139 1
90 142 9
90 143 8
90 144 3
90 146 3
90 148 4
90 149 1
90 152 8
90 153 3
90 157 4
90 161 7
90 165 7
90 170 1
90 171 7
90 173 3
90 177 1
90 184 2
90 186 9
90 188 2
90 190 8
90 196 10
90 197 6
90 199 8
90 200 10
91 96 10
91 98 9
91 99 10
91 100 4
91 101 4
91 108 5
91 109 8
91 118 3
91 133 6
91 134 1
91 136 2
91 138 8
91 145 6
91 152 5
91 156 6
91 165 8
91 167 1
91 177 5
91 179 10
91 182 9
91 183 5
91 188 6
91 190 9
91 192 9
92 99 5
92 101 2
92 103 7
92 108 10
92 111 9
92 114 4
92 117 5
92 129 7
92 134 3
92 136 7
92 139 4
92 142 7
92 145 6
92 155 10
92 156 9
92 157 6
92 167 5
92 173 7
92 176 10
92 177 6
92 179 1
92 181 10
92 182 10
92 184 10
92 185 8
92 186 1
92 189 6
92 190 9
92 192 5
92 195 1
93 99 6
93 102 2
93 104 7
93 109 2
93 110 1
93 113 4
93 115 2
93 121 10
93 123 9
93 125 1
93 126 4
93 127 3
93 129 8
93 130 1
93 132 3
93 133 7
93 134 4
93 136 8
93 142 7
93 143 9
93 148 1
93 152 5
93 153 7
93 155 10
93 163 7
93 168 9
93 169 4
93 172 3
93 173 5
93 178 9
93 184 5
93 185 5
93 188 6
93 191 2
93 199 2
93 200 4
94 96 5
94 97 4
94 106 2
94 107 3
94 108 8
94 120 10
94 122 10
94 123 4
94 124 10
94 128 10
94 130 10
94 131 10
94 132 10
94 134 9
94 135 1
94 136 10
94 140 7
94 145 10
94 148 10
94 162 5
94 165 5
94 168 1
94 176 1
94 180 4
94 186 4
94 187 7
94 190 8
94 197 2
94 200 7
95 97 9
95 99 8
95 100 8
95 101 6
95 106 4
95 107 10
95 110 9
95 113 6
95 117 9
95 123 3
95 127 3
95 132 10
95 137 5
95 140 3
95 141 2
95 142 5
95 145 2
95 146 4
95 150 7
95 151 1
95 166 6
95 167 3
95 174 7
95 177 2
95 178 9
95 180 7
95 185 1
95 189 3
95 191 2
95 192 3
95 193 9
95 194 9
95 195 6
95 196 9
95 200 7
96 97 6
96 99 2
96 101 7
96 107 5
96 108 6
96 111 1
96 113 10
96 114 1
96 115 1
96 123 9
96 131 8
96 132 6
96 134 8
96 135 8
96 137 7
96 140 8
96 142 5
96 143 5
96 146 3
96 148 6
96 151 3
96 153 6
96 156 3
96 159 10
96 160 2
96 161 9
96 165 3
96 168 9
96 169 10
96 171 2
96 172 7
96 173 4
96 175 2
96 181 9
96 182 3
96 187 5
96 196 1
96 197 9
96 198 6
96 200 8
97 100 3
97 103 2
97 105 1
97 113 6
97 120 8
97 123 8
97 124 2
97 126 6
97 127 9
97 131 10
97 136 10
97 137 1
97 139 9
97 144 5
97 146 5
97 148 1
97 151 10
97 152 7
97 155 5
97 157 4
97 161 7
97 165 3
97 166 4
97 168 9
97 171 8
97 174 7
97 175 4
97 176 1
97 178 3
97 180 1
97 182 9
97 183 9
97 188 5
97 192 10
97 197 6
97 199 6
97 200 7
98 101 10
98 106 1
98 108 5
98 118 1
98 120 6
98 125 1
98 138 6
98 141 6
98 144 1
98 149 2
98 153 9
98 163 1
98 164 3
98 166 7
98 168 9
98 170 3
98 172 8
98 180 7
98 189 10
98 190 5
98 191 5
98 193 4
98 197 7
98 200 8
99 102 5
99 106 2
99 108 4
99 111 10
99 113 6
99 115 1
99 121 1
99 123 7
99 125 5
99 137 3
99 138 1
99 146 7
99 148 8
99 151 8
99 153 9
99 159 1
99 164 9
99 165 7
99 167 7
99 168 3
99 176 3
99 180 2
99 186 8
99 188 2
99 192 9
99 197 8
99 200 10
100 101 6
100 102 7
100 108 8
100 109 3
100 113 3
100 116 6
100 119 1
100 120 9
100 124 3
100 127 7
100 140 3
100 144 3
100 154 7
100 160 1
100 165 1
100 167 3
100 172 8
100 175 10
100 184 7
100 186 6
100 196 2
100 197 9
100 198 9
100 199 8
100 200 5
101 113 5
101 114 8
101 118 6
101 119 7
101 122 3
101 123 1
101 131 3
101 132 4
101 135 5
101 136 4
101 140 9
101 142 4
101 146 6
101 155 9
101 156 2
101 158 7
101 161 8
101 163 8
101 167 1
101 170 9
101 171 1
101 172 8
101 173 8
101 179 6
101 181 9
101 186 8
101 188 5
101 192 9
101 193 7
101 194 3
101 200 9
102 103 6
102 104 5
102 113 9
102 114 10
102 116 6
102 123 9
102 124 5
102 126 2
102 129 8
102 137 6
102 138 1
102 141 1
102 142 7
102 144 1
102 153 5
102 154 2
102 158 4
102 161 1
102 162 2
102 165 3
102 166 8
102 172 8
102 176 9
102 180 2
102 181 10
102 182 6
102 184 8
102 185 2
102 188 6
102 192 4
102 197 6
102 199 7
102 200 3
103 105 9
103 107 7
103 110 2
103 118 9
103 119 5
103 121 8
103 122 7
103 125 1
103 143 8
103 145 6
103 147 4
103 159 2
103 160 10
103 161 2
103 168 10
103 173 6
103 174 3
103 181 9
103 185 10
103 190 1
103 191 5
103 193 10
104 109 1
104 114 10
104 122 1
104 128 5
104 129 4
104 134 10
104 139 7
104 146 9
104 147 9
104 149 1
104 150 7
104 152 7
104 159 6
104 167 3
104 173 8
104 175 10
104 178 2
104 180 7
104 181 2
104 185 10
104 195 1
104 199 5
105 106 2
105 107 7
105 127 3
105 131 5
105 133 6
105 135 7
105 137 9
105 139 2
105 141 10
105 144 9
105 146 3
105 151 2
105 154 8
105 169 2
105 171 3
105 172 7
105 173 8
105 175 3
105 176 6
105 178 2
105 179 5
105 186 5
105 190 7
105 192 8
106 112 7
106 117 6
106 118 8
106 127 2
106 136 3
106 137 3
106 139 3
106 141 7
106 144 1
106 146 4
106 155 9
106 156 2
106 157 2
106 161 5
106 168 2
106 169 5
106 170 7
106 171 5
106 174 10
106 177 7
106 179 2
106 185 7
106 195 4
107 124 7
107 125 2
107 128 10
107 129 3
107 131 7
107 138 8
107 141 2
107 142 7
107 143 8
107 145 6
107 146 8
107 149 1
107 157 10
107 162 5
107 163 5
107 166 10
107 171 7
107 172 10
107 173 1
107 178 10
107 179 1
107 183 4
107 184 4
107 187 5
107 195 2
108 110 3
108 117 2
108 119 2
108 121 10
108 124 6
108 126 1
108 130 10
108 131 1
108 133 7
108 148 4
108 149 8
108 151 2
108 154 2
108 159 3
108 164 3
108 165 9
108 168 1
108 174 8
108 179 7
108 182 3
108 184 1
108 191 10
108 194 10
108 196 4
108 198 7
109 112 5
109 113 9
109 114 8
109 127 1
109 128 7
109 131 3
109 132 2
109 135 6
109 139 3
109 146 1
109 147 4
109 150 1
109 151 7
109 152 10
109 157 5
109 164 9
109 168 9
109 169 3
109 171 3
109 172 2
109 173 10
109 174 6
109 176 10
109 177 9
109 178 9
109 180 5
109 181 9
109 182 2
109 184 9
109 189 9
109 191 6
109 192 1
109 197 10
110 111 4
110 112 6
110 120 7
110 122 3
110 123 10
110 125 8
110 126 7
110 128 8
110 130 7
110 131 2
110 134 10
110 135 2
110 136 2
110 138 4
110 141 2
110 143 5
110 145 9
110 146 4
110 158 3
110 169 7
110 174 6
110 177 7
110 181 5
110 182 7
110 183 5
110 191 5
110 196 2
110 197 5
110 199 8
111 112 7
111 117 10
111 119 6
111 126 3
111 128 9
111 132 7
111 135 4
111 138 9
111 139 2
111 143 1
111 144 2
111 149 2
111 152 10
111 155 4
111 161 2
111 167 8
111 169 9
111 170 5
111 171 1
111 174 4
111 180 1
111 181 7
111 191 10
111 193 1
111 199 2
112 114 4
112 127 7
112 128 5
112 136 1
112 146 7
112 149 6
112 150 2
112 151 10
112 155 1
112 158 9
112 160 8
112 161 6
112 163 7
112 164 8
112 166 3
112 167 5
112 169 9
112 175 1
112 180 2
112 181 10
112 182 2
112 184 7
112 186 4
112 196 4
112 197 1
112 198 8
112 199 9
113 116 4
113 128 2
113 135 5
113 136 9
113 138 10
113 139 4
113 140 2
113 146 6
113 153 2
113 159 7
113 160 2
113 161 6
113 163 10
113 166 2
113 168 1
113 173 7
113 176 7
113 177 3
113 178 5
113 179 9
113 187 7
113 190 3
113 193 8
113 195 2
113 196 5
113 197 6
114 116 5
114 117 10
114 119 9
114 122 2
114 123 9
114 127 6
114 130 4
114 131 7
114 136 6
114 141 10
114 142 5
114 143 2
114 144 5
114 145 2
114 147 4
114 148 6
114 149 10
114 151 5
114 153 10
114 156 1
114 160 10
114 161 2
114 164 5
114 168 6
114 170 2
114 171 4
114 173 7
114 177 10
114 180 1
114 183 10
114 188 3
114 189 9
114 191 3
114 194 2
114 196 5
114 197 5
114 199 6
114 200 3
115 117 7
115 120 1
115 124 1
115 127 4
115 131 6
115 133 10
115 134 3
115 138 4
115 144 7
115 145 10
115 151 7
115 152 9
115 154 4
115 155 6
115 157 5
115 161 1
115 162 5
115 172 1
115 175 8
115 183 4
115 188 8
115 195 9
115 197 5
115 198 10
116 119 8
116 126 3
116 129 1
116 131 5
116 133 8
116 134 7
116 135 9
116 137 1
116 139 8
116 141 6
116 142 5
116 143 5
116 145 3
116 147 4
116 150 3
116 152 3
116 156 6
116 159 2
116 162 3
116 163 4
116 167 5
116 170 10
116 171 7
116 172 5
116 174 7
116 185 3
116 192 3
116 193 9
117 121 9
117 125 9
117 133 3
117 140 9
117 143 4
117 144 6
117 150 8
117 152 5
117 158 2
117 161 3
117 163 9
117 166 7
117 168 6
117 171 6
117 172 5
117 173 6
117 179 1
117 184 6
117 187 9
117 188 3
117 191 1
117 194 5
117 200 4
118 119 5
118 121 3
118 122 2
118 131 10
118 132 7
118 135 8
118 140 9
118 143 10
118 144 9
118 146 7
118 147 7
118 149 7
118 151 8
118 152 5
118 154 8
118 155 9
118 158 5
118 160 1
118 178 6
118 190 2
118 192 4
118 194 6
118 196 8
118 200 5
119 121 1
119 129 1
119 140 3
119 141 4
119 144 5
119 145 6
119 152 5
119 155 8
119 156 7
119 157 6
119 159 10
119 166 6
119 167 10
119 168 2
119 169 4
119 170 9
119 171 3
119 172 8
119 174 1
119 186 2
119 187 10
119 189 6
119 193 6
119 195 4
119 199 9
120 122 6
120 127 4
120 133 3
120 142 3
120 143 3
120 151 3
120 155 5
120 163 2
120 169 7
120 170 9
120 173 5
120 176 9
120 179 1
120 180 2
120 181 9
120 182 1
120 183 10
120 190 3
120 191 7
120 192 10
120 194 2
120 196 5
120 199 7
121 127 2
121 131 2
121 135 10
121 137 10
121 139 7
121 141 1
121 143 9
121 145 5
121 150 8
121 154 5
121 158 9
121 159 5
121 160 9
121 168 8
121 171 6
121 176 9
121 177 7
121 178 7
121 180 9
121 181 3
121 194 5
121 197 4
121 198 10
121 200 2
122 128 8
122 129 10
122 134 7
122 137 5
122 138 6
122 140 8
122 145 4
122 146 2
122 149 10
122 150 2
122 151 5
122 157 9
122 160 5
122 167 7
122 174 3
122 181 7
122 187 9
122 190 6
122 191 4
122 192 2
123 130 5
123 134 2
123 138 2
123 142 7
123 145 4
123 146 5
123 147 4
123 152 2
123 154 9
123 159 7
123 160 3
123 162 3
123 164 7
123 168 6
123 169 10
123 171 7
123 187 2
123 190 3
123 196 2
123 198 10
123 199 2
123 200 6
124 126 6
124 129 8
124 132 9
124 133 9
124 134 6
124 136 9
124 138 9
124 142 6
124 144 6
124 145 1
124 146 4
124 153 2
124 154 5
124 155 3
124 157 10
124 167 4
124 171 2
124 172 5
124 173 10
124 178 10
124 186 7
124 190 4
124 198 7
124 199 1
125 127 6
125 137 1
125 138 5
125 141 2
125 142 1
125 147 7
125 148 8
125 150 7
125 151 8
125 156 3
125 157 9
125 159 3
125 164 6
125 167 5
125 177 4
125 178 10
125 179 1
125 180 5
125 185 9
125 187 6
125 188 7
125 193 3
125 194 1
125 197 3
125 198 6
125 199 3
126 129 10
126 132 6
126 135 9
126 139 7
126 140 3
126 141 8
126 150 10
126 156 2
126 158 5
126 166 6
126 176 10
126 180 9
126 189 6
126 191 8
126 193 3
126 200 2
127 136 2
127 137 3
127 140 3
127 142 7
127 143 8
127 146 7
127 147 6
127 150 8
127 151 9
127 154 9
127 155 10
127 159 8
127 161 3
127 165 6
127 167 1
127 169 4
127 176 9
127 184 6
127 187 1
127 195 3
127 199 3
128 134 7
128 135 1
128 138 5
128 140 4
128 144 6
128 146 10
128 149 9
128 152 5
128 161 3
128 163 4
128 167 2
128 169 6
128 171 10
128 176 5
128 179 5
128 180 7
128 181 10
128 183 4
128 184 3
128 189 10
128 191 4
128 193 9
128 195 7
128 199 7
129 136 9
129 137 8
129 139 2
129 145 8
129 148 7
129 154 1
129 155 1
129 158 9
129 159 4
129 160 5
129 162 9
129 165 4
129 166 10
129 171 1
129 172 5
129 174 1
129 179 5
129 183 8
129 185 5
129 187 7
129 188 7
129 189 7
129 192 2
129 195 6
129 199 5
130 132 3
130 133 7
130 134 3
130 141 2
130 142 7
130 143 5
130 144 2
130 149 8
130 152 8
130 157 3
130 159 4
130 162 8
130 163 9
130 164 6
130 168 5
130 175 1
130 177 3
130 184 9
130 187 3
130 188 6
130 189 8
130 193 3
130 194 3
130 196 3
130 197 10
131 134 1
131 135 7
131 137 10
131 138 6
131 139 10
131 142 8
131 145 7
131 147 2
131 148 7
131 153 5
131 154 10
131 158 7
131 159 2
131 161 6
131 162 7
131 168 6
131 170 8
131 173 10
131 175 2
131 182 7
131 185 7
131 186 1
131 187 7
131 190 7
131 192 2
131 193 4
131 196 5
132 136 2
132 137 9
132 139 8
132 143 8
132 145 2
132 152 4
132 154 7
132 158 8
132 167 5
132 174 5
132 178 3
132 179 2
132 182 4
132 183 1
132 184 6
132 190 6
132 191 8
132 192 3
132 193 10
132 196 5
132 198 2
133 135 8
133 136 1
133 138 5
133 144 7
133 146 8
133 149 7
133 151 10
133 152 4
133 158 10
133 160 7
133 164 6
133 167 6
133 173 5
133 174 1
133 175 8
133 176 3
133 179 1
133 180 4
133 182 1
133 186 5
133 187 1
133 193 4
133 200 1
134 136 1
134 137 9
134 142 4
134 145 8
134 148 3
134 150 3
134 151 1
134 153 9
134 159 4
134 161 6
134 164 7
134 168 5
134 178 3
134 183 7
134 185 8
134 187 3
134 188 3
134 194 3
134 199 6
134 200 7
135 138 3
135 141 8
135 144 10
135 147 8
135 150 2
135 152 5
135 154 2
135 158 3
135 163 6
135 164 9
135 167 6
135 176 10
135 179 10
135 181 7
135 182 6
135 187 10
135 188 6
135 189 5
135 196 9
135 200 3
136 138 10
136 139 4
136 143 7
136 144 5
136 145 4
136 146 6
136 152 5
136 153 7
136 155 9
136 162 8
136 172 9
136 187 5
136 190 9
136 191 4
136 192 5
136 197 7
137 140 2
137 143 8
137 145 5
137 146 1
137 147 6
137 149 10
137 150 7
137 151 9
137 159 1
137 161 9
137 164 2
137 165 3
137 167 7
137 168 8
137 169 7
137 171 5
137 172 7
137 174 8
137 179 9
137 180 3
137 181 4
137 182 2
137 192 2
137 196 6
138 139 5
138 158 4
138 163 1
138 165 9
138 166 1
138 167 6
138 168 3
138 170 10
138 173 1
138 180 1
138 183 8
138 185 10
138 195 4
138 198 6
138 199 2
138 200 4
139 144 7
139 145 8
139 148 4
139 154 3
139 155 4
139 156 4
139 165 7
139 166 5
139 168 9
139 173 8
139 183 9
139 187 8
139 195 6
139 197 4
139 198 3
139 199 8
139 200 8
140 141 10
140 142 1
140 143 1
140 145 1
140 150 3
140 151 3
140 152 6
140 153 1
140 155 6
140 157 5
140 158 6
140 159 10
140 163 2
140 169 8
140 183 9
140 189 6
140 190 5
140 200 5
141 145 8
141 147 10
141 148 9
141 149 1
141 150 2
141 151 1
141 163 3
141 166 5
141 167 2
141 168 7
141 171 10
141 174 9
141 175 8
141 178 9
141 181 4
141 183 8
141 186 10
141 190 1
141 191 4
141 192 8
141 194 5
141 199 3
141 200 5
142 144 3
142 153 2
142 159 8
142 161 10
142 162 9
142 166 9
142 168 4
142 169 4
142 173 2
142 174 2
142 175 9
142 179 7
142 181 10
142 184 6
142 185 1
142 186 7
142 192 4
142 193 8
143 144 2
143 145 10
143 150 5
143 155 10
143 158 7
143 162 2
143 164 6
143 167 4
143 169 4
143 172 7
143 175 6
143 187 7
143 188 7
143 192 2
143 193 8
143 195 6
143 199 7
144 145 4
144 146 8
144 150 8
144 151 7
144 152 8
144 153 7
144 156 9
144 166 10
144 169 8
144 173 8
144 175 3
144 176 4
144 179 2
144 182 4
144 183 9
144 184 6
144 187 2
144 199 2
144 200 9
145 147 7
145 150 5
145 155 9
145 156 3
145 159 9
145 163 1
145 166 10
145 170 5
145 172 10
145 173 8
145 174 9
145 180 5
145 183 8
145 184 2
145 188 2
145 190 1
145 195 5
145 197 7
146 148 3
146 152 1
146 153 3
146 154 8
146 159 1
146 163 6
146 168 8
146 179 6
146 181 1
146 184 9
146 186 8
146 192 9
146 193 9
147 149 6
147 151 10
147 152 6
147 154 3
147 159 6
147 165 1
147 171 2
147 176 5
147 178 4
147 186 3
147 191 1
147 200 3
148 151 8
148 153 9
148 155 7
148 165 9
148 168 9
148 173 5
148 174 10
148 178 5
148 182 8
148 185 5
148 191 5
148 193 3
148 197 2
148 198 6
148 199 10
149 151 1
149 157 7
149 158 10
149 164 8
149 167 10
149 168 3
149 171 7
149 172 5
149 174 8
149 175 8
149 189 4
149 190 8
149 191 2
149 193 8
149 194 9
149 196 8
150 154 9
150 156 8
150 158 1
150 159 7
150 167 8
150 173 1
150 175 2
150 178 3
150 183 5
150 190 5
150 192 4
150 199 2
150 200 5
151 153 10
151 154 2
151 156 6
151 157 10
151 160 3
151 163 8
151 164 4
151 170 5
151 171 4
151 172 2
151 174 8
151 175 2
151 182 4
151 183 9
151 184 5
151 186 3
151 187 9
151 188 6
151 189 1
152 154 2
152 158 6
152 166 6
152 168 4
152 169 3
152 171 5
152 172 2
152 181 1
152 185 8
152 189 9
152 190 9
152 191 7
152 197 9
152 198 10
153 161 7
153 163 3
153 164 4
153 166 7
153 168 3
153 173 8
153 178 9
153 179 8
153 192 6
153 199 4
154 156 8
154 158 5
154 164 7
154 167 7
154 169 6
154 171 9
154 178 1
154 180 3
154 186 1
154 189 4
154 197 9
154 198 5
154 199 1
155 156 5
155 158 1
155 160 3
155 161 10
155 162 5
155 163 4
155 164 6
155 167 9
155 168 4
155 171 10
155 172 9
155 173 8
155 180 2
155 186 1
155 191 5
155 193 1
155 197 1
155 198 4
156 159 10
156 161 3
156 162 7
156 164 8
156 167 3
156 168 4
156 169 5
156 171 4
156 172 9
156 174 1
156 175 7
156 178 1
156 183 2
156 186 9
156 191 1
156 192 10
156 193 1
156 194 2
157 159 1
157 163 9
157 167 5
157 169 10
157 173 1
157 178 7
157 182 10
157 183 6
157 184 6
157 188 4
157 189 5
157 191 4
157 195 10
157 196 6
157 200 2
158 160 1
158 161 8
158 164 8
158 165 6
158 166 4
158 167 1
158 171 5
158 172 6
158 174 4
158 179 6
158 180 1
158 187 6
158 189 3
158 192 4
158 195 10
158 198 7
158 199 3
158 200 3
159 161 10
159 162 4
159 164 9
159 174 3
159 176 1
159 179 3
159 180 2
159 184 7
159 188 10
159 189 5
159 190 3
159 192 3
159 193 2
159 195 7
159 198 7
159 199 8
160 162 3
160 163 3
160 165 6
160 178 1
160 180 7
160 181 8
160 183 10
160 189 1
160 191 6
160 193 6
160 194 5
160 196 6
160 199 6
160 200 5
161 163 4
161 166 2
161 168 8
161 170 3
161 175 3
161 177 2
161 192 6
161 193 6
161 199 4
161 200 1
162 163 2
162 175 10
162 176 2
162 177 9
162 180 8
162 188 1
162 191 7
162 198 9
163 166 1
163 167 1
163 168 5
163 169 9
163 170 7
163 173 5
163 174 9
163 181 10
163 182 6
163 184 4
163 185 6
163 193 10
163 195 3
164 165 3
164 168 3
164 172 8
164 177 7
164 182 3
164 183 4
164 185 4
164 186 5
164 200 3
165 167 7
165 181 5
165 183 7
165 184 3
165 187 3
165 188 3
165 190 4
165 193 9
165 197 9
166 167 9
166 173 5
166 174 7
166 177 7
166 178 4
166 181 5
166 189 5
167 169 1
167 171 7
167 173 3
167 175 1
167 180 4
167 181 7
167 182 7
167 191 8
168 170 8
168 173 6
168 175 6
168 176 6
168 181 1
168 183 1
168 188 8
168 189 5
168 197 7
168 198 10
169 175 1
169 178 9
169 179 8
169 180 3
169 181 5
169 182 9
169 183 3
169 185 5
169 186 9
169 188 8
169 190 2
169 192 7
169 194 2
169 198 4
169 199 7
170 174 5
170 175 7
170 180 5
170 185 1
170 189 6
170 191 10
170 200 5
171 174 3
171 175 7
171 176 10
171 177 1
171 178 8
171 181 3
171 183 8
171 185 10
171 187 3
171 188 2
171 189 5
171 193 10
171 195 8
171 197 1
171 198 5
171 200 9
172 179 7
172 182 3
172 185 4
172 186 9
172 187 3
172 188 2
172 189 10
172 194 10
172 195 4
172 200 6
173 178 5
173 180 3
173 185 8
173 187 6
173 191 10
173 198 4
174 175 10
174 180 10
174 181 8
174 182 1
174 187 9
174 192 10
174 195 9
174 197 1
174 198 4
175 177 4
175 178 3
175 179 8
175 184 4
175 186 9
175 187 3
175 188 5
175 192 6
175 193 10
175 196 9
175 197 6
175 198 4
176 177 7
176 184 10
176 186 8
176 187 2
176 188 4
176 192 3
176 193 2
176 194 8
176 195 8
176 200 2
177 178 8
177 179 9
177 181 4
177 183 10
177 186 1
177 190 8
177 192 5
178 181 5
178 182 4
178 188 1
178 190 3
178 192 5
178 193 10
179 189 2
179 190 6
179 191 5
179 193 5
179 194 1
179 199 5
179 200 7
180 182 3
180 186 8
180 191 6
180 192 3
180 196 5
180 200 1
181 183 4
181 187 9
181 189 10
181 190 7
181 191 1
181 192 5
181 198 1
181 199 4
181 200 3
182 184 7
182 187 10
182 190 8
182 191 10
182 194 10
182 195 10
182 196 1
182 199 10
183 185 2
183 188 7
183 191 7
183 198 9
184 185 10
184 190 1
184 192 4
184 193 10
184 196 6
184 197 3
184 200 4
185 189 3
185 190 8
185 192 6
185 195 6
185 199 6
186 196 8
186 198 5
187 194 2
187 195 1
188 190 6
188 191 10
188 192 6
188 194 1
188 196 9
189 196 3
190 192 10
190 193 8
190 195 3
190 200 9
191 194 9
191 197 10
192 195 7
192 196 8
192 199 3
193 198 9
194 197 8
195 197 1
195 198 9
