200 9950 550
4
10
7
8
10
7
7
8
7
5
3
6
8
1
3
5
5
3
6
4
4
1
1
9
4
2
9
1
5
2
2
8
3
1
5
3
6
7
1
5
4
1
8
9
5
10
2
2
5
9
7
8
6
4
6
5
6
7
6
1
6
8
8
10
3
7
4
6
6
7
5
4
2
9
4
3
1
1
5
10
5
1
9
10
5
6
6
9
3
3
6
1
9
4
4
4
8
10
8
5
4
3
4
3
2
3
2
8
9
3
5
4
2
2
3
3
4
1
10
8
1
2
8
4
5
9
6
1
4
9
8
7
4
1
7
8
5
4
7
1
4
1
3
10
2
1
8
7
1
9
3
10
2
10
3
9
1
4
2
10
4
3
8
5
7
2
7
10
10
9
8
7
9
9
10
10
10
4
4
8
10
5
5
8
8
3
10
8
6
6
4
3
10
9
2
9
2
6
5
5
1 5 3
1 10 4
1 11 2
1 14 5
1 18 5
1 23 10
1 26 7
1 27 5
1 28 1
1 29 5
1 30 9
1 32 4
1 34 1
1 36 10
1 37 1
1 38 4
1 39 1
1 42 1
1 43 10
1 45 9
1 46 2
1 48 3
1 49 8
1 51 5
1 52 4
1 54 8
1 56 4
1 59 8
1 60 1
1 62 6
1 65 10
1 66 3
1 67 9
1 68 10
1 71 2
1 72 9
1 75 9
1 78 2
1 80 2
1 86 4
1 89 7
1 96 5
1 102 1
1 103 7
1 105 5
1 107 2
1 111 6
1 113 4
1 114 6
1 116 4
1 117 6
1 121 4
1 122 7
1 123 5
1 125 9
1 126 7
1 128 8
1 130 5
1 132 9
1 133 6
1 135 9
1 136 2
1 137 7
1 138 5
1 146 7
1 149 3
1 151 3
1 152 2
1 153 2
1 154 7
1 155 3
1 158 2
1 160 5
1 164 2
1 165 2
1 167 3
1 171 5
1 172 1
1 173 8
1 175 9
1 176 2
1 177 8
1 178 3
1 180 9
1 182 7
1 184 7
1 185 9
1 186 2
1 187 2
1 190 5
1 191 7
1 192 10
1 193 9
1 196 9
1 197 5
1 200 6
2 4 3
2 5 7
2 6 1
2 9 7
2 10 3
2 12 3
2 13 1
2 16 1
2 18 10
2 22 5
2 24 6
2 25 1
2 26 7
2 27 1
2 28 3
2 30 7
2 31 6
2 32 4
2 33 2
2 37 9
2 38 8
2 39 3
2 41 7
2 42 3
2 43 10
2 44 1
2 46 1
2 50 2
2 51 4
2 52 7
2 53 2
2 54 5
2 57 5
2 61 10
2 66 8
2 68 5
2 70 4
2 72 1
2 76 3
2 81 4
2 82 9
2 83 4
2 85 1
2 86 5
2 89 9
2 90 9
2 93 6
2 96 9
2 99 3
2 102 5
2 105 5
2 106 1
2 109 3
2 111 2
2 112 7
2 114 1
2 117 8
2 118 4
2 119 5
2 120 8
2 121 9
2 124 7
2 133 2
2 140 3
2 142 1
2 143 10
2 146 8
2 149 5
2 150 4
2 151 7
2 152 8
2 155 1
2 156 3
2 158 8
2 159 1
2 163 8
2 168 7
2 170 7
2 171 8
2 173 7
2 174 8
2 177 7
2 179 10
2 180 5
2 181 3
2 185 6
2 186 10
2 189 1
2 192 4
2 193 1
2 196 10
2 198 10
2 199 3
3 4 3
3 5 2
3 7 9
3 10 1
3 13 3
3 14 8
3 17 5
3 18 4
3 19 5
3 21 10
3 22 8
3 23 7
3 24 5
3 27 9
3 34 3
3 36 1
3 37 6
3 39 3
3 40 8
3 42 2
3 43 8
3 45 5
3 50 7
3 51 2
3 54 7
3 58 4
3 59 7
3 63 9
3 64 4
3 65 3
3 66 5
3 69 7
3 70 8
3 71 4
3 72 3
3 76 9
3 78 3
3 80 2
3 82 2
3 88 6
3 89 1
3 91 1
3 92 8
3 93 1
3 94 9
3 99 8
3 100 9
3 101 10
3 104 1
3 107 6
3 112 3
3 113 10
3 114 2
3 124 10
3 126 3
3 127 5
3 129 3
3 130 2
3 132 2
3 133 1
3 134 8
3 135 5
3 136 5
3 141 2
3 142 6
3 144 5
3 146 9
3 148 9
3 149 3
3 155 7
3 157 8
3 160 6
3 165 1
3 166 1
3 171 9
3 172 2
3 173 2
3 176 1
3 177 2
3 178 7
3 179 6
3 180 3
3 181 10
3 182 5
3 183 3
3 184 1
3 185 6
3 186 7
3 191 1
3 192 6
3 194 10
3 195 3
3 197 6
3 198 6
4 5 10
4 8 8
4 9 2
4 11 5
4 12 7
4 13 6
4 14 9
4 15 7
4 17 6
4 20 7
4 24 7
4 25 5
4 29 10
4 31 6
4 32 10
4 38 9
4 39 5
4 40 5
4 42 10
4 43 6
4 44 10
4 45 7
4 55 6
4 58 9
4 59 1
4 62 1
4 63 5
4 65 6
4 66 5
4 67 7
4 68 4
4 72 8
4 73 6
4 74 5
4 75 8
4 79 2
4 80 8
4 82 6
4 84 1
4 85 7
4 87 2
4 92 8
4 93 6
4 94 8
4 95 1
4 98 9
4 99 4
4 100 5
4 102 8
4 107 10
4 108 8
4 110 2
4 111 2
4 112 6
4 113 9
4 118 1
4 121 3
4 122 7
4 125 10
4 127 8
4 128 10
4 133 10
4 135 9
4 139 4
4 140 1
4 143 5
4 144 8
4 149 5
4 151 3
4 156 1
4 158 5
4 160 6
4 161 5
4 162 4
4 165 2
4 166 4
4 167 4
4 168 5
4 170 7
4 173 3
4 174 2
4 175 10
4 176 3
4 177 8
4 181 6
4 182 8
4 184 2
4 185 10
4 187 9
4 191 10
4 192 1
4 193 7
4 194 7
4 197 9
5 7 2
5 8 1
5 10 10
5 11 8
5 13 1
5 17 4
5 21 1
5 22 2
5 23 3
5 25 10
5 26 5
5 30 4
5 32 5
5 37 2
5 41 10
5 42 8
5 44 4
5 45 5
5 49 1
5 50 9
5 51 8
5 53 3
5 59 8
5 60 5
5 64 1
5 66 6
5 67 9
5 69 1
5 71 1
5 73 9
5 74 10
5 75 1
5 79 4
5 87 10
5 89 2
5 91 3
5 95 7
5 96 10
5 98 3
5 101 3
5 102 8
5 103 7
5 104 8
5 106 9
5 107 1
5 108 4
5 110 7
5 112 5
5 113 1
5 114 6
5 115 1
5 119 1
5 123 7
5 125 10
5 128 3
5 129 5
5 130 10
5 138 9
5 140 5
5 144 10
5 145 9
5 149 6
5 150 8
5 151 5
5 153 1
5 154 1
5 155 6
5 156 6
5 157 4
5 159 6
5 162 7
5 163 5
5 164 10
5 165 5
5 168 1
5 171 3
5 172 10
5 173 10
5 175 10
5 177 5
5 179 2
5 180 2
5 185 10
5 186 4
5 187 9
5 190 5
5 193 6
5 196 8
5 198 6
6 10 2
6 11 6
6 12 8
6 13 7
6 14 7
6 16 8
6 17 3
6 18 1
6 19 6
6 21 6
6 22 1
6 23 8
6 24 7
6 26 7
6 28 2
6 35 4
6 36 10
6 38 6
6 39 7
6 41 8
6 42 8
6 43 1
6 44 4
6 46 3
6 49 2
6 51 9
6 52 6
6 55 9
6 57 3
6 60 10
6 62 1
6 63 4
6 65 4
6 67 1
6 68 7
6 70 6
6 71 4
6 72 3
6 73 4
6 74 2
6 78 3
6 81 7
6 83 1
6 86 9
6 87 8
6 89 2
6 90 1
6 93 3
6 95 5
6 97 10
6 99 3
6 101 10
6 105 7
6 107 8
6 109 10
6 110 2
6 113 4
6 114 3
6 116 8
6 119 2
6 122 1
6 125 9
6 128 9
6 130 8
6 133 8
6 134 9
6 137 4
6 138 4
6 140 5
6 141 8
6 143 4
6 144 6
6 145 1
6 146 3
6 147 1
6 148 10
6 151 2
6 153 3
6 154 9
6 157 5
6 158 5
6 160 9
6 162 2
6 164 2
6 167 5
6 172 9
6 175 3
6 179 7
6 182 9
6 184 1
6 185 10
6 186 9
6 188 2
6 190 1
6 191 5
6 192 10
6 195 3
6 198 4
6 199 1
6 200 2
7 8 7
7 9 5
7 11 6
7 12 1
7 13 6
7 14 10
7 16 4
7 17 10
7 19 2
7 20 10
7 22 8
7 24 6
7 26 6
7 28 8
7 29 9
7 32 8
7 33 3
7 34 8
7 35 2
7 37 9
7 42 10
7 43 1
7 45 3
7 46 1
7 48 10
7 51 7
7 52 7
7 55 8
7 57 2
7 58 3
7 62 10
7 63 10
7 64 8
7 65 5
7 67 10
7 68 7
7 72 6
7 73 8
7 74 4
7 75 7
7 83 2
7 87 7
7 88 6
7 91 1
7 92 7
7 94 8
7 95 1
7 98 7
7 99 9
7 102 1
7 104 8
7 105 6
7 107 5
7 108 2
7 110 9
7 112 10
7 115 4
7 118 8
7 119 5
7 122 3
7 123 5
7 124 9
7 128 4
7 129 9
7 131 10
7 135 6
7 137 1
7 139 1
7 140 2
7 141 7
7 142 4
7 144 3
7 147 6
7 152 1
7 153 4
7 156 6
7 162 3
7 164 9
7 165 7
7 170 9
7 171 8
7 172 7
7 174 10
7 175 7
7 178 5
7 179 3
7 181 2
7 183 6
7 184 1
7 185 2
7 188 7
7 192 1
7 193 10
7 194 9
7 197 10
7 200 1
8 9 9
8 12 10
8 14 9
8 16 10
8 17 3
8 19 8
8 20 6
8 24 1
8 25 5
8 27 10
8 28 7
8 29 6
8 30 1
8 31 3
8 32 8
8 35 10
8 37 10
8 39 5
8 41 5
8 42 6
8 45 4
8 48 1
8 51 5
8 56 10
8 57 1
8 59 9
8 60 5
8 62 6
8 63 5
8 66 5
8 67 3
8 68 6
8 69 3
8 71 9
8 72 7
8 73 8
8 76 8
8 78 3
8 79 5
8 80 9
8 81 3
8 82 4
8 83 7
8 84 10
8 85 6
8 86 3
8 87 7
8 88 9
8 89 8
8 92 1
8 95 5
8 96 9
8 98 10
8 99 5
8 100 1
8 102 9
8 105 9
8 110 8
8 111 8
8 112 3
8 115 5
8 116 8
8 123 10
8 129 10
8 135 7
8 136 6
8 138 8
8 141 4
8 142 2
8 143 1
8 144 3
8 148 3
8 153 7
8 154 1
8 155 5
8 156 9
8 157 7
8 160 5
8 161 4
8 163 2
8 165 2
8 166 7
8 167 6
8 170 10
8 171 7
8 175 6
8 176 6
8 177 10
8 178 3
8 179 8
8 180 5
8 181 6
8 185 2
8 186 9
8 189 2
8 192 2
8 193 7
8 197 10
8 198 3
9 10 1
9 13 7
9 15 6
9 16 7
9 18 4
9 19 10
9 25 1
9 30 7
9 34 6
9 37 2
9 38 7
9 39 1
9 44 8
9 45 1
9 47 5
9 49 9
9 50 9
9 52 8
9 53 1
9 54 3
9 55 4
9 57 5
9 58 4
9 62 6
9 63 9
9 64 10
9 65 1
9 67 6
9 72 8
9 73 8
9 74 2
9 75 10
9 78 6
9 79 7
9 81 2
9 83 2
9 88 3
9 91 9
9 94 2
9 95 5
9 96 5
9 100 4
9 101 5
9 102 4
9 103 8
9 104 2
9 105 10
9 107 8
9 109 10
9 110 6
9 113 8
9 114 4
9 116 3
9 117 4
9 119 1
9 121 2
9 122 1
9 125 9
9 127 10
9 131 5
9 137 6
9 141 10
9 143 2
9 144 8
9 146 10
9 147 1
9 148 9
9 150 1
9 154 7
9 156 3
9 157 5
9 158 7
9 159 2
9 163 1
9 164 4
9 165 9
9 167 9
9 168 9
9 169 4
9 170 3
9 171 10
9 173 7
9 174 8
9 179 10
9 180 5
9 182 5
9 183 1
9 186 6
9 190 1
9 193 3
9 195 2
9 197 5
9 200 1
10 11 1
10 12 10
10 13 8
10 17 8
10 19 9
10 21 1
10 23 1
10 24 9
10 27 5
10 29 7
10 31 1
10 34 6
10 36 2
10 38 8
10 39 1
10 41 7
10 43 9
10 44 2
10 45 5
10 52 10
10 55 4
10 58 2
10 60 1
10 61 6
10 62 7
10 64 1
10 65 6
10 66 1
10 67 5
10 68 3
10 70 8
10 71 9
10 74 9
10 76 3
10 77 6
10 79 3
10 82 8
10 84 2
10 86 3
10 87 10
10 91 4
10 92 1
10 97 4
10 100 4
10 103 4
10 104 4
10 107 2
10 108 5
10 110 10
10 111 2
10 115 1
10 116 10
10 118 6
10 119 3
10 121 4
10 123 9
10 124 3
10 125 3
10 126 7
10 127 10
10 128 2
10 131 10
10 132 10
10 133 2
10 139 6
10 140 1
10 142 1
10 143 9
10 144 2
10 145 10
10 149 8
10 150 1
10 152 8
10 153 3
10 155 6
10 156 8
10 157 3
10 161 7
10 162 8
10 163 8
10 165 5
10 171 2
10 172 5
10 173 2
10 175 5
10 176 2
10 177 5
10 178 5
10 179 1
10 180 7
10 181 7
10 183 5
10 184 9
10 187 7
10 188 8
10 189 4
10 191 8
10 193 10
10 198 4
10 199 7
10 200 1
11 14 9
11 15 6
11 17 9
11 18 1
11 19 9
11 21 3
11 23 4
11 25 7
11 29 8
11 30 2
11 31 7
11 33 1
11 34 8
11 35 1
11 36 5
11 37 6
11 41 4
11 49 9
11 50 4
11 51 5
11 52 1
11 53 5
11 54 8
11 57 8
11 59 6
11 62 9
11 63 9
11 64 5
11 66 3
11 67 4
11 68 2
11 69 7
11 71 4
11 74 2
11 77 6
11 79 3
11 80 1
11 81 9
11 83 7
11 86 2
11 87 10
11 88 6
11 89 9
11 90 3
11 92 4
11 94 9
11 95 7
11 96 2
11 97 7
11 100 1
11 101 10
11 102 10
11 104 1
11 105 4
11 106 6
11 107 1
11 108 1
11 109 1
11 110 6
11 112 1
11 113 2
11 116 6
11 118 1
11 119 3
11 121 3
11 123 9
11 125 8
11 127 3
11 129 2
11 130 2
11 131 4
11 133 6
11 141 5
11 142 4
11 143 4
11 144 3
11 145 1
11 149 9
11 150 8
11 151 4
11 153 4
11 154 1
11 155 6
11 157 8
11 158 2
11 160 9
11 161 9
11 165 5
11 166 5
11 168 8
11 169 4
11 170 5
11 172 10
11 178 7
11 179 10
11 180 6
11 181 10
11 183 9
11 185 5
11 187 4
11 188 8
11 189 4
11 192 1
11 194 7
11 196 3
11 198 3
11 199 9
11 200 7
12 13 8
12 15 3
12 17 1
12 18 1
12 19 2
12 20 8
12 21 9
12 24 1
12 26 9
12 27 2
12 30 3
12 31 10
12 34 1
12 35 2
12 36 7
12 38 9
12 39 10
12 40 1
12 41 6
12 42 7
12 44 8
12 46 7
12 49 5
12 50 6
12 53 3
12 54 6
12 61 5
12 62 8
12 64 7
12 65 1
12 69 2
12 71 8
12 72 1
12 73 2
12 74 10
12 76 9
12 78 10
12 83 9
12 84 5
12 85 7
12 90 10
12 92 3
12 93 1
12 95 8
12 99 5
12 100 10
12 103 5
12 105 7
12 106 1
12 108 10
12 109 3
12 110 10
12 111 6
12 112 3
12 113 3
12 114 8
12 118 2
12 120 1
12 122 3
12 123 6
12 124 7
12 125 7
12 128 7
12 129 3
12 130 8
12 131 1
12 132 7
12 134 5
12 135 5
12 140 1
12 142 8
12 144 3
12 145 7
12 147 9
12 148 6
12 149 5
12 150 1
12 151 3
12 153 10
12 154 10
12 155 6
12 156 8
12 158 7
12 159 9
12 160 3
12 161 6
12 162 1
12 163 8
12 165 10
12 169 6
12 171 8
12 172 5
12 173 7
12 174 2
12 178 3
12 179 8
12 181 4
12 182 3
12 183 1
12 189 5
12 190 9
12 194 3
12 195 5
12 199 2
12 200 3
13 19 3
13 21 3
13 23 1
13 26 5
13 35 9
13 36 6
13 38 4
13 39 5
13 40 9
13 41 1
13 42 2
13 43 6
13 48 6
13 53 6
13 54 5
13 55 6
13 57 3
13 58 3
13 67 8
13 69 9
13 70 2
13 73 10
13 78 2
13 80 10
13 81 5
13 82 10
13 83 8
13 85 3
13 86 1
13 87 4
13 94 9
13 96 6
13 98 2
13 100 4
13 102 6
13 103 9
13 105 3
13 106 10
13 108 5
13 109 6
13 113 10
13 116 5
13 117 8
13 118 4
13 120 7
13 121 1
13 124 4
13 126 6
13 130 1
13 131 4
13 133 7
13 136 10
13 138 6
13 139 3
13 142 1
13 144 8
13 148 7
13 150 4
13 151 10
13 154 6
13 155 8
13 156 8
13 157 5
13 159 1
13 160 5
13 162 6
13 168 3
13 170 8
13 171 7
13 178 8
13 179 4
13 180 3
13 182 6
13 183 6
13 185 10
13 187 7
13 190 4
13 193 6
13 195 1
13 197 9
13 198 7
13 199 6
14 15 2
14 16 4
14 19 7
14 20 10
14 22 1
14 26 1
14 27 9
14 28 2
14 30 10
14 32 2
14 33 9
14 34 6
14 44 10
14 47 9
14 48 4
14 49 8
14 50 2
14 54 3
14 55 7
14 56 8
14 57 6
14 58 3
14 60 2
14 61 1
14 63 10
14 65 10
14 69 3
14 71 6
14 72 4
14 75 2
14 77 7
14 78 5
14 79 3
14 80 4
14 83 9
14 84 3
14 85 3
14 91 3
14 94 10
14 95 8
14 97 7
14 99 4
14 101 3
14 102 1
14 105 4
14 107 6
14 108 6
14 109 7
14 113 10
14 114 6
14 115 10
14 116 1
14 118 9
14 121 10
14 122 3
14 128 4
14 129 3
14 130 3
14 131 9
14 132 1
14 133 2
14 135 3
14 136 2
14 137 2
14 139 10
14 141 4
14 143 9
14 144 10
14 145 1
14 148 1
14 150 1
14 153 4
14 159 7
14 160 8
14 162 1
14 164 6
14 165 10
14 166 10
14 168 6
14 169 8
14 170 4
14 172 4
14 174 6
14 175 10
14 176 9
14 180 4
14 185 8
14 187 5
14 190 7
14 192 2
14 193 8
14 194 10
14 196 2
14 197 1
14 198 5
14 200 7
15 18 7
15 23 8
15 24 1
15 25 10
15 27 5
15 29 2
15 34 2
15 35 4
15 37 5
15 39 3
15 40 1
15 41 9
15 43 1
15 44 8
15 46 1
15 50 9
15 52 7
15 54 9
15 55 8
15 56 4
15 57 3
15 58 3
15 59 6
15 62 4
15 63 5
15 64 7
15 65 9
15 68 9
15 69 10
15 70 5
15 71 1
15 72 9
15 73 6
15 74 6
15 75 5
15 76 10
15 77 8
15 78 3
15 81 6
15 84 9
15 85 5
15 86 7
15 87 1
15 88 3
15 90 2
15 91 8
15 96 2
15 98 6
15 100 7
15 102 8
15 103 8
15 109 4
15 110 2
15 113 2
15 114 7
15 115 7
15 116 1
15 117 8
15 118 4
15 121 7
15 122 9
15 131 1
15 132 7
15 133 6
15 134 1
15 137 1
15 138 1
15 139 9
15 140 1
15 141 7
15 142 5
15 143 4
15 144 6
15 146 2
15 147 7
15 148 5
15 149 1
15 151 7
15 152 5
15 153 9
15 156 2
15 158 6
15 160 6
15 165 5
15 167 10
15 172 1
15 175 8
15 176 6
15 178 3
15 179 7
15 182 5
15 183 1
15 184 3
15 185 6
15 186 10
15 188 4
15 190 5
15 191 6
15 193 9
15 194 6
15 198 9
15 199 4
16 18 3
16 20 8
16 21 1
16 22 3
16 23 9
16 24 4
16 25 8
16 26 8
16 27 9
16 28 6
16 29 8
16 30 8
16 36 5
16 37 6
16 40 3
16 41 2
16 44 7
16 46 1
16 50 5
16 51 8
16 55 9
16 60 4
16 61 9
16 62 3
16 65 6
16 66 7
16 68 7
16 69 2
16 73 3
16 74 8
16 75 3
16 77 10
16 78 8
16 79 8
16 80 5
16 81 9
16 82 8
16 86 2
16 87 7
16 88 1
16 89 5
16 90 10
16 91 4
16 92 6
16 93 6
16 95 3
16 97 7
16 102 1
16 104 9
16 108 7
16 109 7
16 111 1
16 112 6
16 113 5
16 115 4
16 116 1
16 119 10
16 124 7
16 125 7
16 126 5
16 128 4
16 129 9
16 130 9
16 132 9
16 133 8
16 134 4
16 137 10
16 138 9
16 141 8
16 142 6
16 144 5
16 148 7
16 150 3
16 151 5
16 153 3
16 155 4
16 158 3
16 159 3
16 161 10
16 165 3
16 166 6
16 167 7
16 171 7
16 174 1
16 175 5
16 178 4
16 179 10
16 180 9
16 182 6
16 183 10
16 184 9
16 189 9
16 191 7
16 193 7
16 195 7
16 198 1
16 199 4
16 200 6
17 18 4
17 20 3
17 22 4
17 28 3
17 29 9
17 30 8
17 31 6
17 38 2
17 42 3
17 43 10
17 44 7
17 45 9
17 47 10
17 48 10
17 51 8
17 52 7
17 54 10
17 55 9
17 56 10
17 57 1
17 60 4
17 63 10
17 65 7
17 68 1
17 70 1
17 73 7
17 74 2
17 75 4
17 77 3
17 78 10
17 81 3
17 82 4
17 85 3
17 86 2
17 88 4
17 89 6
17 91 4
17 92 2
17 93 5
17 95 3
17 96 1
17 98 4
17 99 8
17 101 2
17 102 7
17 103 5
17 104 6
17 105 9
17 106 3
17 110 8
17 113 9
17 114 7
17 116 7
17 117 3
17 118 1
17 121 2
17 122 6
17 130 8
17 131 2
17 133 9
17 134 6
17 137 1
17 138 8
17 140 1
17 141 6
17 145 7
17 153 9
17 154 3
17 155 10
17 156 8
17 158 4
17 161 3
17 163 4
17 168 6
17 173 10
17 174 2
17 177 5
17 178 10
17 182 8
17 184 7
17 186 1
17 190 4
17 191 2
17 193 6
17 197 7
17 198 8
17 199 3
18 19 2
18 21 6
18 22 9
18 23 3
18 26 3
18 27 1
18 29 7
18 31 2
18 34 6
18 35 1
18 37 3
18 38 4
18 41 5
18 42 5
18 44 8
18 45 8
18 54 2
18 56 7
18 57 5
18 58 3
18 62 6
18 63 3
18 66 5
18 67 3
18 68 5
18 72 10
18 73 6
18 75 8
18 79 3
18 81 4
18 85 8
18 86 5
18 87 4
18 88 3
18 91 1
18 92 5
18 98 10
18 102 7
18 104 3
18 105 7
18 109 4
18 110 9
18 111 9
18 112 2
18 113 3
18 114 3
18 115 9
18 119 8
18 120 1
18 124 4
18 126 9
18 127 1
18 130 4
18 131 7
18 133 4
18 134 8
18 137 10
18 142 1
18 143 4
18 144 7
18 145 10
18 146 3
18 147 2
18 151 4
18 152 9
18 154 8
18 155 4
18 159 10
18 165 1
18 168 6
18 169 5
18 171 7
18 172 1
18 174 9
18 175 5
18 179 7
18 180 2
18 183 3
18 185 5
18 188 9
18 190 6
18 191 9
18 196 9
18 197 1
18 198 7
18 199 8
18 200 10
19 21 5
19 25 4
19 28 5
19 32 10
19 34 5
19 35 3
19 36 6
19 38 8
19 39 5
19 40 1
19 44 4
19 46 2
19 47 4
19 48 7
19 50 10
19 52 2
19 55 4
19 57 5
19 58 7
19 59 3
19 62 4
19 66 3
19 67 5
19 68 1
19 70 9
19 71 6
19 72 5
19 73 8
19 76 3
19 78 10
19 80 8
19 83 8
19 84 6
19 85 10
19 86 5
19 89 6
19 91 5
19 94 5
19 95 6
19 97 10
19 98 9
19 100 9
19 101 1
19 103 8
19 104 7
19 112 8
19 113 4
19 115 7
19 117 1
19 120 1
19 121 3
19 122 4
19 123 3
19 124 10
19 125 8
19 126 7
19 127 4
19 129 7
19 133 7
19 135 2
19 145 2
19 147 7
19 155 5
19 157 3
19 159 5
19 163 8
19 164 2
19 169 1
19 172 3
19 173 3
19 176 8
19 177 2
19 178 4
19 180 8
19 181 8
19 182 4
19 183 1
19 184 2
19 185 7
19 187 4
19 191 8
19 193 1
19 194 4
19 196 1
19 197 8
19 198 1
19 199 8
20 23 1
20 24 6
20 25 4
20 26 8
20 27 7
20 29 10
20 31 7
20 32 8
20 33 5
20 38 8
20 40 8
20 41 5
20 43 9
20 45 7
20 47 7
20 48 5
20 49 8
20 50 7
20 54 2
20 55 7
20 56 3
20 57 4
20 63 1
20 64 5
20 65 2
20 66 5
20 69 10
20 70 2
20 74 6
20 75 10
20 76 6
20 78 8
20 79 5
20 80 5
20 85 7
20 87 5
20 88 4
20 89 7
20 91 4
20 93 1
20 95 8
20 96 3
20 97 6
20 98 3
20 100 10
20 101 6
20 104 3
20 105 9
20 109 5
20 112 5
20 113 6
20 115 9
20 119 7
20 122 6
20 126 5
20 129 7
20 131 2
20 133 8
20 134 5
20 136 9
20 138 4
20 141 9
20 143 2
20 144 1
20 147 1
20 149 4
20 152 9
20 154 9
20 155 6
20 156 9
20 158 4
20 159 3
20 160 10
20 161 8
20 162 4
20 163 7
20 166 6
20 167 10
20 168 5
20 169 8
20 170 6
20 173 7
20 176 5
20 179 3
20 180 5
20 181 5
20 184 9
20 185 9
20 186 6
20 189 10
20 193 9
20 194 8
20 195 1
20 196 1
20 197 2
20 198 2
20 199 9
20 200 3
21 25 9
21 26 10
21 27 7
21 29 9
21 31 9
21 32 2
21 33 3
21 34 1
21 35 6
21 41 2
21 42 5
21 43 4
21 47 3
21 48 5
21 49 4
21 53 6
21 54 4
21 55 2
21 56 5
21 57 10
21 59 3
21 63 1
21 64 3
21 65 7
21 70 7
21 73 8
21 75 7
21 76 8
21 77 2
21 78 9
21 79 6
21 81 3
21 82 6
21 84 9
21 85 3
21 87 6
21 89 2
21 94 1
21 96 5
21 100 1
21 108 1
21 113 10
21 115 5
21 116 9
21 117 10
21 118 8
21 119 1
21 120 1
21 121 2
21 122 7
21 125 8
21 127 1
21 128 2
21 129 9
21 133 10
21 134 2
21 135 7
21 136 7
21 138 5
21 141 1
21 142 6
21 143 5
21 144 6
21 146 6
21 147 6
21 148 3
21 149 10
21 151 10
21 152 2
21 153 3
21 154 6
21 159 4
21 160 8
21 161 4
21 162 4
21 164 3
21 165 4
21 169 1
21 170 3
21 171 10
21 173 8
21 175 8
21 176 5
21 177 3
21 184 8
21 185 10
21 186 7
21 187 1
21 188 9
21 189 9
21 192 1
21 193 4
21 195 8
21 196 9
21 197 9
21 198 6
22 23 3
22 24 1
22 25 1
22 26 2
22 27 7
22 28 5
22 29 8
22 31 4
22 32 6
22 33 8
22 35 4
22 36 3
22 37 8
22 44 2
22 45 3
22 47 1
22 48 8
22 49 6
22 50 1
22 51 8
22 52 3
22 56 4
22 58 1
22 60 4
22 61 1
22 63 5
22 65 7
22 66 7
22 67 1
22 72 7
22 76 10
22 77 3
22 79 2
22 90 1
22 91 5
22 92 8
22 93 8
22 94 2
22 95 5
22 96 9
22 97 9
22 98 4
22 99 1
22 101 2
22 102 1
22 103 6
22 107 6
22 108 5
22 109 6
22 110 1
22 111 3
22 112 1
22 113 8
22 115 3
22 116 3
22 117 10
22 118 9
22 123 8
22 125 6
22 128 4
22 130 9
22 132 9
22 133 10
22 134 8
22 136 9
22 138 3
22 146 3
22 147 1
22 148 10
22 149 6
22 150 4
22 153 8
22 154 4
22 155 2
22 156 10
22 166 5
22 167 1
22 168 9
22 169 5
22 170 8
22 172 3
22 173 1
22 174 4
22 175 10
22 176 6
22 177 8
22 179 8
22 180 6
22 185 9
22 187 6
22 188 6
22 189 7
22 193 6
22 194 6
22 198 2
22 199 2
22 200 6
23 24 10
23 30 1
23 36 8
23 38 1
23 39 8
23 41 3
23 42 4
23 48 2
23 50 8
23 51 3
23 54 8
23 55 5
23 61 8
23 62 7
23 66 10
23 67 3
23 68 6
23 70 9
23 71 9
23 72 8
23 73 7
23 78 1
23 81 10
23 83 3
23 84 10
23 86 4
23 87 3
23 90 2
23 94 8
23 96 9
23 97 5
23 98 1
23 99 10
23 100 3
23 101 2
23 102 1
23 103 6
23 106 3
23 107 2
23 109 1
23 111 9
23 112 9
23 113 6
23 117 4
23 118 3
23 119 7
23 121 2
23 122 3
23 123 4
23 124 1
23 130 5
23 131 10
23 133 2
23 136 8
23 137 5
23 139 8
23 141 2
23 142 3
23 143 10
23 146 10
23 147 5
23 149 9
23 151 2
23 152 5
23 153 5
23 154 6
23 157 4
23 159 10
23 160 3
23 164 3
23 165 3
23 166 9
23 168 8
23 171 6
23 177 8
23 180 8
23 182 10
23 184 10
23 185 2
23 186 9
23 188 6
23 189 6
23 191 6
23 192 8
23 195 6
23 196 6
23 197 3
23 200 1
24 25 9
24 26 10
24 29 8
24 30 2
24 31 9
24 32 8
24 33 8
24 35 3
24 37 5
24 38 8
24 39 9
24 42 9
24 44 6
24 47 2
24 51 7
24 52 2
24 55 6
24 58 8
24 60 1
24 61 10
24 63 1
24 65 10
24 69 4
24 70 3
24 72 7
24 75 8
24 76 6
24 80 5
24 81 3
24 84 8
24 87 10
24 88 3
24 89 4
24 91 7
24 92 9
24 95 1
24 96 6
24 97 7
24 98 3
24 99 4
24 102 3
24 103 2
24 105 3
24 108 8
24 110 3
24 112 2
24 113 2
24 115 2
24 117 7
24 118 2
24 120 9
24 121 7
24 122 8
24 123 2
24 125 7
24 130 10
24 132 2
24 133 1
24 134 9
24 138 4
24 139 9
24 140 7
24 141 8
24 142 3
24 145 7
24 146 10
24 149 9
24 151 8
24 154 2
24 155 8
24 156 4
24 158 7
24 159 6
24 161 8
24 163 4
24 165 2
24 166 3
24 170 5
24 171 8
24 173 10
24 177 7
24 179 2
24 180 3
24 183 8
24 184 5
24 187 9
24 189 6
24 191 2
24 193 7
24 194 10
24 195 2
24 196 1
24 199 7
24 200 5
25 26 3
25 27 2
25 30 1
25 32 5
25 33 6
25 34 1
25 35 8
25 36 8
25 37 7
25 38 6
25 39 4
25 42 5
25 43 7
25 44 3
25 48 2
25 50 7
25 55 8
25 56 8
25 58 7
25 59 1
25 65 5
25 66 8
25 67 7
25 68 3
25 70 8
25 71 10
25 74 3
25 76 9
25 84 5
25 86 3
25 87 8
25 88 5
25 92 2
25 95 5
25 96 2
25 97 3
25 99 1
25 100 4
25 102 6
25 104 4
25 107 8
25 108 5
25 111 6
25 112 7
25 113 1
25 114 6
25 115 8
25 119 8
25 120 6
25 123 1
25 124 10
25 125 4
25 126 6
25 127 4
25 128 6
25 129 4
25 131 3
25 133 7
25 134 10
25 136 4
25 139 2
25 140 1
25 143 8
25 144 1
25 145 4
25 146 6
25 147 3
25 150 7
25 152 3
25 154 1
25 157 3
25 158 7
25 159 1
25 160 8
25 161 3
25 163 2
25 166 3
25 177 2
25 182 4
25 183 6
25 185 7
25 187 1
25 190 10
25 191 3
25 196 2
25 197 3
25 200 1
26 27 3
26 29 7
26 30 4
26 31 6
26 32 8
26 33 6
26 34 7
26 35 3
26 36 1
26 42 8
26 44 7
26 45 9
26 46 9
26 48 4
26 50 2
26 51 8
26 62 3
26 65 9
26 67 1
26 70 3
26 71 5
26 74 4
26 75 7
26 77 5
26 78 2
26 81 7
26 83 5
26 84 9
26 85 5
26 86 2
26 87 3
26 88 10
26 92 10
26 94 2
26 97 1
26 98 7
26 99 2
26 103 9
26 104 8
26 106 7
26 107 7
26 109 8
26 111 9
26 112 7
26 114 7
26 116 7
26 117 2
26 118 6
26 119 4
26 120 7
26 121 7
26 122 1
26 124 4
26 125 3
26 127 4
26 128 6
26 129 10
26 130 10
26 132 5
26 133 7
26 134 10
26 135 6
26 137 1
26 138 9
26 141 2
26 144 1
26 153 6
26 154 6
26 156 7
26 158 10
26 159 10
26 168 6
26 169 8
26 170 3
26 171 3
26 173 9
26 175 4
26 176 1
26 177 1
26 180 3
26 181 10
26 184 4
26 185 3
26 186 1
26 187 5
26 188 6
26 190 2
26 195 7
26 196 8
26 197 5
26 198 5
26 199 1
27 29 7
27 31 2
27 32 9
27 34 2
27 36 5
27 38 2
27 42 6
27 44 6
27 45 9
27 50 9
27 51 10
27 52 9
27 53 3
27 54 10
27 57 2
27 58 9
27 59 8
27 61 9
27 63 9
27 64 7
27 66 4
27 70 4
27 71 3
27 73 8
27 74 7
27 75 5
27 81 8
27 83 2
27 85 5
27 86 4
27 88 9
27 93 6
27 95 9
27 97 2
27 98 8
27 99 2
27 100 2
27 101 10
27 105 1
27 106 9
27 109 10
27 110 9
27 112 5
27 113 6
27 115 3
27 117 5
27 120 9
27 122 10
27 124 9
27 130 3
27 132 2
27 133 7
27 137 4
27 138 9
27 141 4
27 142 10
27 143 5
27 144 10
27 145 10
27 148 7
27 149 4
27 150 8
27 151 3
27 152 9
27 153 3
27 156 2
27 157 3
27 158 4
27 159 8
27 164 3
27 167 10
27 169 7
27 170 7
27 172 4
27 174 9
27 176 5
27 177 9
27 178 1
27 179 9
27 182 7
27 183 7
27 185 1
27 186 6
27 188 3
27 191 7
27 194 2
27 195 4
27 196 7
27 197 7
28 31 1
28 34 4
28 35 2
28 36 10
28 37 6
28 39 2
28 40 8
28 42 1
28 47 10
28 51 10
28 54 8
28 56 5
28 57 6
28 58 7
28 61 4
28 62 7
28 63 8
28 66 6
28 67 10
28 68 9
28 72 9
28 76 3
28 77 7
28 80 10
28 83 5
28 84 4
28 91 4
28 92 9
28 93 2
28 94 2
28 95 8
28 96 6
28 100 5
28 101 2
28 102 6
28 104 3
28 105 8
28 108 5
28 109 3
28 111 10
28 112 6
28 114 2
28 115 6
28 119 10
28 120 4
28 122 9
28 124 7
28 125 2
28 126 8
28 127 10
28 131 10
28 134 1
28 136 5
28 137 10
28 138 8
28 139 7
28 146 6
28 148 2
28 149 1
28 150 2
28 152 10
28 153 1
28 155 2
28 156 2
28 159 3
28 160 3
28 161 9
28 162 6
28 164 5
28 165 10
28 166 2
28 167 3
28 168 5
28 170 3
28 171 1
28 172 6
28 178 7
28 179 4
28 181 1
28 182 10
28 183 10
28 185 9
28 187 3
28 189 5
28 192 6
28 194 3
28 198 8
28 200 3
29 30 4
29 31 8
29 32 2
29 33 7
29 34 5
29 35 5
29 36 9
29 37 7
29 38 10
29 39 3
29 40 9
29 41 8
29 43 1
29 45 10
29 46 2
29 47 6
29 49 5
29 50 5
29 53 7
29 55 9
29 56 8
29 57 2
29 59 1
29 63 9
29 64 1
29 65 4
29 68 9
29 71 1
29 78 8
29 81 10
29 82 5
29 84 9
29 85 5
29 88 10
29 90 6
29 91 6
29 93 10
29 95 2
29 96 5
29 97 10
29 101 9
29 102 8
29 103 7
29 104 5
29 110 8
29 112 10
29 114 6
29 116 3
29 117 2
29 118 1
29 119 3
29 121 7
29 122 1
29 126 8
29 128 8
29 129 2
29 130 7
29 131 5
29 132 9
29 133 2
29 134 4
29 137 5
29 140 6
29 141 8
29 143 8
29 145 1
29 146 4
29 148 6
29 153 8
29 154 1
29 155 5
29 156 5
29 159 4
29 160 5
29 161 4
29 163 5
29 164 4
29 165 1
29 166 1
29 168 9
29 169 2
29 171 8
29 173 1
29 175 6
29 176 8
29 177 3
29 179 4
29 180 3
29 182 8
29 184 7
29 185 5
29 187 10
29 188 5
29 192 2
29 193 8
29 194 4
29 195 5
29 196 9
29 197 4
29 198 1
29 200 1
30 31 9
30 32 3
30 35 3
30 41 9
30 42 9
30 43 5
30 46 1
30 47 1
30 48 2
30 51 9
30 54 5
30 56 8
30 57 8
30 59 8
30 61 8
30 62 9
30 68 3
30 69 7
30 72 3
30 77 3
30 78 6
30 79 4
30 80 5
30 82 8
30 83 3
30 85 7
30 86 4
30 87 7
30 90 5
30 91 1
30 93 4
30 96 7
30 97 3
30 98 3
30 100 1
30 103 1
30 105 9
30 107 9
30 108 9
30 111 5
30 114 10
30 115 3
30 116 5
30 118 8
30 119 10
30 121 9
30 123 8
30 125 8
30 130 1
30 132 4
30 133 7
30 134 3
30 137 9
30 140 4
30 144 4
30 148 7
30 154 1
30 155 8
30 157 3
30 159 3
30 160 7
30 162 8
30 163 8
30 166 3
30 167 3
30 168 10
30 169 2
30 170 7
30 171 3
30 173 7
30 179 7
30 180 1
30 183 1
30 184 2
30 185 1
30 187 1
30 188 5
30 191 3
30 192 10
30 194 3
30 195 5
30 196 10
30 197 3
30 199 9
31 32 1
31 33 3
31 34 7
31 36 1
31 37 6
31 38 8
31 39 4
31 42 4
31 43 9
31 44 3
31 46 5
31 49 4
31 50 5
31 51 6
31 52 4
31 57 2
31 58 1
31 62 2
31 65 1
31 66 7
31 67 6
31 68 2
31 69 6
31 71 10
31 73 5
31 74 10
31 75 7
31 77 7
31 84 6
31 85 9
31 86 8
31 88 4
31 93 10
31 94 7
31 95 3
31 96 9
31 97 10
31 98 9
31 100 2
31 101 9
31 102 6
31 103 5
31 104 10
31 105 1
31 109 9
31 110 8
31 112 1
31 113 10
31 114 4
31 117 6
31 121 10
31 123 6
31 125 10
31 126 5
31 127 2
31 128 3
31 134 7
31 139 3
31 140 5
31 142 7
31 144 2
31 145 4
31 146 8
31 147 2
31 148 2
31 150 1
31 151 2
31 159 6
31 162 2
31 163 9
31 164 9
31 165 10
31 166 2
31 170 9
31 172 7
31 173 1
31 174 1
31 176 1
31 177 5
31 178 2
31 179 6
31 180 6
31 183 4
31 184 1
31 186 6
31 187 5
31 190 5
31 196 9
31 198 2
31 200 5
32 33 7
32 34 2
32 36 7
32 37 9
32 38 2
32 42 6
32 43 3
32 45 6
32 46 8
32 47 10
32 48 4
32 55 1
32 57 2
32 58 1
32 59 8
32 65 7
32 66 3
32 67 6
32 68 9
32 69 3
32 71 6
32 72 10
32 76 10
32 79 1
32 81 7
32 83 3
32 84 9
32 85 5
32 90 10
32 93 7
32 96 10
32 99 1
32 101 2
32 103 1
32 104 10
32 105 9
32 106 1
32 110 4
32 112 1
32 113 1
32 114 7
32 115 5
32 116 6
32 117 6
32 121 10
32 122 9
32 123 5
32 125 4
32 126 9
32 129 8
32 131 8
32 133 4
32 136 1
32 139 3
32 140 10
32 141 8
32 146 4
32 147 3
32 148 10
32 149 3
32 150 2
32 152 10
32 154 2
32 156 10
32 157 10
32 158 3
32 162 10
32 163 8
32 164 8
32 168 6
32 171 4
32 173 7
32 176 6
32 181 2
32 182 10
32 185 7
32 188 2
32 189 6
32 190 4
32 192 10
32 193 4
32 194 8
32 197 9
32 198 2
32 200 7
33 35 1
33 38 4
33 39 2
33 41 10
33 43 4
33 44 5
33 45 2
33 48 1
33 50 3
33 51 5
33 52 5
33 56 1
33 57 3
33 58 9
33 59 6
33 60 9
33 61 1
33 63 10
33 64 10
33 66 1
33 67 4
33 68 2
33 70 8
33 71 3
33 73 3
33 75 5
33 76 8
33 79 10
33 80 7
33 81 2
33 83 4
33 84 8
33 85 3
33 87 9
33 90 9
33 93 10
33 94 8
33 95 6
33 96 2
33 97 5
33 99 7
33 100 1
33 102 1
33 104 5
33 106 5
33 107 9
33 109 1
33 112 1
33 114 1
33 115 6
33 119 9
33 121 9
33 122 10
33 123 2
33 124 7
33 127 2
33 128 1
33 129 5
33 130 5
33 131 4
33 133 6
33 134 2
33 136 9
33 137 9
33 141 7
33 143 7
33 145 10
33 146 10
33 147 7
33 150 5
33 151 6
33 152 3
33 158 1
33 159 3
33 161 1
33 162 3
33 166 3
33 167 4
33 168 3
33 172 6
33 175 2
33 176 10
33 178 9
33 179 7
33 182 7
33 183 6
33 185 8
33 187 4
33 192 10
33 194 2
33 195 3
33 198 9
34 39 4
34 40 3
34 44 7
34 48 5
34 50 4
34 51 10
34 52 1
34 54 7
34 56 3
34 59 6
34 60 2
34 63 2
34 65 3
34 68 9
34 69 10
34 75 9
34 77 7
34 78 2
34 79 1
34 80 6
34 85 1
34 87 9
34 88 8
34 90 5
34 92 8
34 94 2
34 95 6
34 96 3
34 98 9
34 99 1
34 100 9
34 101 7
34 102 3
34 103 9
34 104 2
34 105 7
34 107 5
34 108 6
34 109 9
34 110 2
34 111 2
34 114 3
34 115 6
34 116 2
34 117 9
34 119 6
34 120 2
34 121 5
34 122 9
34 124 6
34 125 5
34 127 7
34 129 6
34 130 5
34 131 10
34 134 9
34 137 9
34 140 8
34 141 7
34 142 7
34 143 6
34 145 1
34 147 8
34 148 6
34 150 9
34 152 1
34 153 8
34 155 1
34 156 1
34 157 3
34 158 9
34 159 4
34 161 4
34 169 10
34 173 7
34 174 8
34 178 5
34 179 6
34 180 6
34 181 1
34 182 4
34 183 3
34 184 6
34 185 9
34 186 10
34 187 2
34 189 10
34 190 1
34 191 8
34 192 6
34 194 5
34 196 5
34 198 1
35 36 1
35 38 1
35 40 7
35 41 4
35 43 7
35 44 10
35 45 9
35 49 3
35 51 10
35 53 9
35 54 2
35 57 2
35 61 6
35 62 2
35 63 6
35 64 10
35 66 9
35 67 6
35 68 10
35 69 5
35 71 5
35 72 1
35 75 8
35 78 10
35 79 4
35 81 6
35 83 6
35 84 1
35 85 4
35 87 4
35 89 2
35 91 5
35 92 3
35 95 2
35 96 4
35 99 1
35 101 5
35 105 2
35 107 2
35 110 9
35 111 7
35 112 5
35 114 3
35 116 5
35 117 6
35 119 9
35 121 5
35 122 10
35 124 1
35 127 6
35 128 5
35 129 6
35 131 9
35 132 5
35 133 3
35 135 10
35 138 1
35 139 6
35 140 4
35 144 2
35 146 1
35 147 7
35 154 7
35 157 4
35 158 8
35 160 10
35 161 10
35 163 10
35 166 3
35 168 2
35 169 7
35 170 4
35 173 9
35 174 9
35 177 7
35 179 10
35 180 10
35 183 3
35 186 6
35 187 6
35 188 4
35 190 9
35 191 3
35 193 6
35 196 9
35 197 6
35 198 4
35 199 3
36 38 4
36 39 2
36 40 5
36 42 9
36 43 9
36 45 6
36 46 2
36 47 9
36 48 8
36 50 3
36 54 4
36 55 9
36 59 9
36 60 2
36 64 3
36 65 7
36 70 3
36 72 5
36 75 5
36 82 2
36 83 2
36 84 7
36 87 7
36 88 5
36 91 8
36 94 2
36 96 2
36 101 5
36 102 3
36 106 2
36 107 5
36 108 7
36 109 2
36 110 2
36 111 7
36 114 6
36 121 5
36 122 5
36 124 2
36 125 3
36 126 5
36 127 10
36 129 6
36 131 3
36 133 2
36 137 2
36 138 5
36 139 3
36 140 1
36 141 10
36 142 10
36 144 6
36 146 5
36 147 2
36 148 10
36 151 8
36 152 1
36 153 6
36 154 2
36 156 3
36 158 5
36 159 2
36 160 10
36 161 5
36 162 2
36 166 5
36 169 6
36 170 8
36 172 6
36 173 9
36 174 9
36 175 2
36 176 4
36 179 3
36 180 7
36 183 7
36 186 6
36 187 10
36 188 9
36 190 5
36 191 5
36 192 5
36 193 9
36 197 3
36 199 10
37 39 10
37 40 8
37 42 7
37 43 1
37 46 1
37 48 8
37 49 5
37 50 10
37 51 2
37 52 10
37 53 5
37 55 3
37 58 2
37 59 1
37 61 4
37 62 1
37 65 4
37 66 4
37 67 9
37 70 7
37 71 8
37 72 5
37 73 6
37 81 7
37 82 3
37 85 2
37 87 9
37 92 8
37 93 4
37 96 10
37 98 9
37 99 1
37 101 4
37 104 10
37 105 2
37 106 1
37 107 7
37 109 9
37 115 6
37 117 9
37 118 4
37 119 5
37 120 1
37 121 3
37 122 6
37 126 3
37 127 1
37 128 7
37 131 6
37 133 5
37 134 4
37 136 9
37 137 9
37 144 1
37 146 10
37 148 8
37 150 3
37 151 8
37 152 2
37 153 8
37 154 10
37 155 3
37 156 6
37 158 1
37 159 5
37 160 7
37 165 10
37 167 5
37 168 8
37 169 2
37 175 10
37 178 2
37 179 9
37 182 7
37 183 3
37 184 9
37 188 4
37 189 1
37 194 8
37 196 5
37 198 2
37 199 4
38 40 9
38 42 1
38 45 2
38 47 8
38 51 9
38 52 6
38 54 2
38 55 9
38 58 3
38 61 2
38 68 2
38 69 10
38 71 1
38 74 1
38 76 10
38 77 3
38 78 9
38 79 4
38 80 8
38 81 5
38 83 1
38 84 2
38 85 1
38 86 10
38 87 3
38 88 4
38 90 3
38 95 6
38 97 4
38 99 6
38 101 10
38 106 9
38 110 9
38 111 7
38 112 8
38 114 1
38 115 2
38 120 3
38 126 3
38 127 3
38 131 4
38 133 1
38 134 2
38 139 9
38 140 7
38 141 9
38 142 1
38 143 5
38 147 1
38 149 2
38 150 2
38 151 4
38 152 9
38 155 5
38 156 7
38 157 6
38 158 1
38 163 6
38 164 1
38 166 9
38 167 3
38 168 4
38 169 6
38 170 6
38 175 2
38 178 8
38 180 4
38 182 4
38 183 4
38 187 1
38 189 6
38 190 2
38 193 3
38 196 5
38 198 2
38 200 5
39 45 1
39 46 9
39 48 6
39 52 4
39 54 5
39 58 4
39 59 3
39 64 6
39 67 3
39 68 10
39 69 5
39 71 2
39 75 4
39 76 8
39 78 6
39 80 3
39 81 9
39 82 9
39 83 3
39 85 9
39 86 2
39 87 1
39 89 9
39 90 1
39 93 6
39 94 9
39 96 7
39 97 1
39 99 4
39 100 3
39 101 6
39 103 6
39 104 7
39 105 3
39 107 8
39 108 9
39 109 7
39 110 8
39 111 8
39 112 5
39 113 3
39 115 7
39 116 8
39 117 2
39 119 5
39 120 3
39 122 6
39 124 6
39 127 7
39 128 7
39 129 8
39 132 3
39 134 4
39 137 5
39 139 4
39 140 1
39 141 9
39 143 2
39 147 10
39 150 3
39 152 5
39 157 3
39 159 1
39 160 4
39 161 9
39 162 5
39 164 5
39 165 2
39 166 9
39 167 9
39 168 4
39 171 8
39 172 6
39 173 6
39 174 9
39 175 6
39 177 10
39 178 3
39 180 10
39 184 8
39 186 10
39 187 7
39 188 3
39 190 2
39 192 8
39 193 7
39 194 4
39 195 5
39 196 9
40 42 3
40 43 5
40 48 2
40 50 8
40 51 4
40 55 2
40 56 5
40 62 6
40 63 4
40 65 9
40 69 6
40 71 4
40 72 2
40 73 5
40 74 1
40 76 8
40 77 6
40 79 2
40 81 8
40 84 5
40 88 8
40 90 10
40 93 2
40 94 2
40 96 2
40 97 9
40 98 10
40 99 6
40 100 4
40 101 1
40 102 3
40 103 9
40 104 8
40 106 8
40 107 5
40 108 7
40 113 8
40 114 5
40 116 9
40 118 9
40 119 8
40 121 8
40 122 6
40 127 4
40 128 7
40 133 2
40 136 1
40 137 2
40 138 9
40 141 2
40 146 10
40 147 3
40 150 6
40 151 4
40 158 10
40 159 2
40 162 5
40 164 5
40 166 10
40 167 6
40 169 9
40 172 6
40 175 8
40 176 4
40 177 10
40 181 4
40 185 3
40 186 5
40 187 6
40 190 7
40 191 1
40 193 7
40 195 2
40 196 3
40 197 7
40 198 7
40 199 4
41 42 3
41 44 1
41 45 5
41 46 6
41 49 3
41 51 2
41 52 7
41 53 3
41 57 4
41 59 6
41 62 5
41 63 10
41 66 9
41 67 2
41 72 10
41 74 7
41 75 9
41 77 1
41 81 8
41 84 3
41 91 2
41 92 10
41 93 10
41 100 7
41 101 4
41 103 6
41 104 6
41 105 3
41 106 3
41 107 10
41 109 8
41 112 10
41 113 2
41 116 8
41 122 6
41 123 5
41 125 3
41 127 8
41 130 7
41 132 8
41 133 4
41 134 4
41 136 9
41 137 6
41 139 8
41 141 5
41 143 4
41 144 9
41 146 5
41 147 6
41 148 9
41 151 7
41 152 9
41 153 9
41 158 10
41 159 10
41 161 10
41 163 4
41 165 3
41 166 10
41 171 3
41 172 5
41 176 9
41 177 6
41 179 10
41 180 8
41 181 7
41 182 4
41 185 3
41 186 5
41 190 3
41 191 7
41 195 3
41 198 2
42 45 6
42 47 6
42 52 7
42 53 10
42 55 9
42 57 6
42 60 4
42 66 4
42 68 1
42 70 8
42 72 4
42 73 10
42 74 4
42 78 3
42 80 10
42 83 2
42 85 6
42 86 1
42 88 6
42 90 9
42 95 8
42 98 5
42 100 3
42 102 1
42 105 3
42 108 2
42 110 9
42 111 10
42 112 1
42 113 2
42 114 1
42 116 2
42 118 4
42 119 5
42 121 3
42 124 9
42 126 9
42 129 3
42 133 4
42 134 5
42 137 3
42 139 1
42 141 8
42 143 8
42 144 1
42 145 9
42 148 6
42 149 6
42 150 4
42 153 6
42 154 1
42 155 7
42 156 1
42 157 8
42 158 8
42 159 2
42 162 10
42 164 7
42 165 2
42 168 10
42 169 5
42 171 2
42 177 7
42 181 8
42 183 3
42 184 9
42 187 8
42 191 8
42 194 5
42 197 3
42 198 7
43 46 4
43 47 1
43 53 5
43 55 8
43 56 9
43 60 2
43 61 10
43 62 7
43 63 9
43 64 6
43 66 10
43 67 1
43 69 6
43 70 4
43 71 3
43 73 7
43 74 3
43 75 10
43 76 5
43 77 4
43 79 4
43 81 8
43 85 6
43 86 6
43 88 1
43 90 3
43 91 2
43 95 2
43 96 8
43 98 9
43 99 1
43 100 3
43 101 2
43 104 6
43 107 5
43 108 5
43 115 1
43 116 7
43 119 6
43 120 4
43 122 1
43 126 5
43 127 1
43 129 10
43 130 7
43 134 2
43 136 9
43 139 2
43 141 9
43 142 4
43 144 8
43 149 1
43 150 1
43 158 6
43 161 3
43 165 8
43 166 6
43 167 10
43 168 9
43 169 4
43 176 6
43 177 1
43 178 1
43 179 6
43 180 7
43 183 4
43 185 9
43 192 1
43 193 10
43 197 9
43 198 7
43 200 2
44 45 5
44 46 6
44 49 3
44 50 6
44 51 5
44 54 9
44 57 8
44 59 4
44 62 1
44 63 5
44 65 10
44 67 5
44 68 5
44 69 6
44 70 3
44 72 7
44 74 3
44 77 8
44 81 9
44 87 8
44 88 1
44 89 5
44 90 5
44 95 1
44 98 7
44 99 3
44 101 10
44 103 6
44 105 2
44 108 10
44 110 9
44 111 2
44 113 8
44 115 5
44 116 6
44 117 5
44 121 2
44 122 9
44 124 8
44 127 5
44 138 10
44 139 7
44 140 8
44 141 10
44 143 3
44 145 1
44 149 3
44 153 1
44 154 10
44 156 2
44 157 2
44 159 3
44 161 1
44 162 5
44 163 7
44 165 1
44 167 8
44 169 7
44 170 1
44 171 2
44 172 8
44 173 1
44 175 6
44 176 1
44 177 2
44 180 10
44 182 5
44 183 5
44 184 3
44 185 10
44 186 6
44 187 4
44 188 9
44 189 5
44 192 4
44 199 8
44 200 9
45 46 4
45 49 4
45 52 6
45 53 2
45 55 2
45 56 10
45 57 7
45 58 1
45 59 3
45 60 5
45 62 9
45 64 7
45 65 4
45 68 7
45 69 4
45 74 7
45 75 6
45 76 7
45 77 4
45 78 7
45 82 1
45 83 2
45 87 9
45 88 5
45 89 4
45 90 5
45 92 9
45 93 8
45 94 6
45 97 7
45 100 2
45 102 8
45 105 8
45 106 8
45 110 3
45 111 9
45 112 7
45 115 1
45 116 2
45 118 5
45 119 7
45 120 7
45 124 2
45 125 9
45 128 10
45 130 10
45 132 4
45 135 1
45 138 6
45 142 3
45 143 9
45 144 7
45 145 10
45 147 1
45 148 6
45 151 9
45 153 9
45 154 5
45 155 5
45 157 7
45 158 7
45 159 10
45 162 6
45 163 5
45 170 5
45 172 2
45 173 5
45 174 9
45 179 4
45 180 1
45 183 4
45 187 5
45 190 4
45 191 4
45 192 5
45 193 8
45 194 5
45 195 4
45 196 5
45 199 7
46 47 4
46 48 4
46 50 6
46 51 1
46 52 6
46 53 3
46 55 3
46 56 7
46 59 3
46 61 8
46 62 4
46 67 3
46 68 2
46 69 3
46 72 3
46 73 9
46 74 3
46 75 9
46 78 7
46 81 7
46 83 8
46 84 4
46 86 3
46 87 6
46 88 3
46 92 2
46 93 1
46 96 3
46 97 1
46 99 7
46 101 4
46 103 8
46 104 4
46 105 1
46 111 1
46 113 1
46 115 8
46 119 9
46 121 2
46 124 6
46 129 6
46 131 3
46 133 5
46 135 10
46 136 1
46 137 3
46 138 2
46 140 3
46 146 9
46 149 9
46 152 7
46 155 2
46 161 4
46 162 9
46 164 5
46 166 9
46 167 7
46 169 4
46 170 6
46 177 5
46 178 3
46 180 5
46 182 4
46 183 4
46 184 6
46 186 10
46 188 5
46 189 1
46 191 10
46 192 10
46 193 1
46 194 2
46 195 9
46 196 9
46 199 7
46 200 9
47 48 2
47 51 7
47 52 4
47 54 1
47 55 9
47 58 2
47 63 4
47 64 4
47 65 2
47 67 3
47 68 6
47 69 6
47 70 6
47 75 7
47 76 10
47 77 3
47 78 6
47 79 8
47 80 5
47 81 4
47 82 3
47 83 6
47 85 2
47 86 1
47 87 8
47 88 4
47 89 2
47 92 9
47 94 3
47 95 8
47 96 8
47 98 9
47 104 9
47 105 1
47 106 6
47 107 3
47 109 1
47 110 10
47 111 9
47 113 5
47 115 7
47 116 5
47 118 7
47 120 5
47 121 1
47 123 10
47 125 6
47 128 2
47 129 1
47 133 6
47 134 5
47 136 8
47 137 8
47 140 1
47 142 8
47 143 10
47 144 10
47 147 9
47 148 7
47 149 1
47 151 4
47 152 1
47 155 4
47 156 3
47 157 3
47 161 3
47 162 4
47 163 4
47 164 3
47 165 5
47 168 7
47 169 9
47 173 5
47 176 8
47 177 10
47 179 8
47 180 10
47 181 1
47 185 5
47 186 10
47 190 3
47 192 1
47 193 9
47 194 2
47 199 7
48 49 1
48 50 10
48 54 7
48 55 10
48 57 7
48 61 8
48 62 1
48 63 10
48 65 1
48 66 7
48 67 9
48 71 4
48 72 8
48 73 7
48 75 9
48 78 6
48 79 9
48 85 3
48 86 4
48 89 8
48 91 8
48 92 6
48 94 6
48 96 10
48 98 2
48 100 9
48 102 6
48 103 10
48 106 6
48 108 5
48 112 9
48 113 3
48 117 8
48 119 2
48 120 1
48 123 7
48 127 10
48 130 6
48 131 5
48 137 1
48 138 6
48 139 1
48 141 7
48 147 3
48 148 8
48 149 1
48 155 3
48 156 3
48 157 9
48 159 10
48 162 9
48 163 8
48 165 6
48 168 10
48 171 9
48 172 6
48 178 5
48 179 7
48 180 3
48 181 6
48 182 3
48 186 8
48 187 1
48 191 2
48 192 10
48 194 3
48 196 6
48 198 9
48 199 4
49 54 3
49 62 9
49 67 7
49 68 3
49 69 4
49 71 5
49 72 10
49 73 5
49 74 3
49 79 4
49 80 9
49 81 1
49 82 10
49 83 8
49 84 4
49 87 5
49 88 7
49 91 4
49 92 6
49 95 8
49 99 10
49 101 2
49 106 4
49 107 8
49 108 4
49 109 8
49 110 1
49 111 8
49 115 2
49 116 6
49 120 9
49 122 2
49 124 10
49 125 10
49 126 6
49 127 10
49 128 1
49 130 3
49 133 5
49 137 3
49 138 7
49 146 1
49 147 9
49 148 1
49 150 5
49 154 7
49 155 10
49 156 5
49 157 2
49 158 6
49 160 7
49 162 1
49 164 7
49 165 10
49 168 3
49 169 7
49 170 4
49 174 2
49 175 6
49 176 3
49 180 10
49 183 5
49 187 7
49 190 3
49 191 3
49 192 6
49 193 2
49 195 5
49 197 1
49 198 5
49 199 3
50 51 9
50 52 5
50 55 9
50 59 7
50 61 9
50 64 7
50 65 9
50 66 1
50 67 6
50 69 1
50 71 6
50 72 5
50 73 9
50 80 2
50 85 2
50 86 1
50 87 7
50 88 8
50 89 6
50 95 1
50 97 3
50 98 2
50 100 8
50 101 5
50 106 3
50 107 5
50 108 8
50 111 3
50 113 8
50 114 1
50 116 1
50 117 4
50 119 1
50 122 7
50 123 7
50 128 8
50 129 2
50 130 5
50 132 9
50 133 4
50 134 10
50 135 4
50 136 8
50 138 8
50 140 10
50 142 5
50 146 5
50 147 6
50 148 7
50 149 1
50 152 4
50 153 2
50 154 1
50 157 1
50 161 7
50 163 3
50 164 9
50 170 2
50 171 2
50 173 9
50 179 2
50 181 10
50 182 9
50 184 9
50 187 7
50 191 9
50 193 3
50 196 10
50 198 6
50 199 8
50 200 5
51 53 4
51 54 3
51 56 6
51 57 9
51 59 9
51 61 9
51 62 7
51 64 3
51 66 3
51 67 5
51 68 2
51 69 3
51 70 3
51 71 9
51 75 10
51 77 9
51 79 10
51 80 5
51 82 4
51 83 9
51 86 5
51 89 6
51 90 2
51 91 1
51 93 3
51 95 6
51 96 10
51 101 1
51 105 10
51 107 1
51 110 6
51 111 2
51 112 10
51 116 6
51 120 1
51 123 3
51 124 4
51 126 4
51 128 1
51 129 5
51 134 9
51 135 7
51 139 8
51 141 5
51 142 10
51 143 7
51 145 2
51 147 7
51 149 9
51 151 3
51 153 4
51 154 3
51 155 4
51 158 9
51 160 6
51 162 8
51 163 3
51 164 9
51 165 8
51 169 1
51 171 5
51 172 7
51 173 7
51 179 9
51 181 10
51 182 5
51 184 1
51 186 10
51 187 9
51 191 4
51 192 2
51 198 1
51 199 3
51 200 1
52 54 5
52 57 5
52 61 9
52 62 2
52 63 5
52 64 8
52 65 6
52 66 2
52 67 6
52 68 8
52 69 3
52 71 7
52 73 9
52 75 8
52 77 5
52 78 4
52 79 8
52 81 2
52 82 10
52 86 2
52 88 7
52 89 9
52 91 4
52 92 3
52 94 10
52 97 7
52 100 9
52 103 10
52 104 5
52 106 7
52 108 3
52 109 7
52 111 2
52 116 7
52 118 10
52 119 8
52 122 7
52 124 1
52 126 9
52 128 3
52 129 2
52 130 4
52 133 7
52 134 10
52 136 1
52 139 3
52 143 6
52 144 9
52 145 6
52 149 10
52 153 6
52 159 4
52 160 4
52 162 3
52 163 5
52 168 3
52 169 8
52 170 2
52 172 6
52 174 3
52 175 9
52 179 7
52 180 9
52 181 4
52 182 5
52 183 9
52 184 10
52 187 10
52 191 9
52 192 8
52 195 5
52 196 1
52 199 9
53 56 3
53 57 4
53 58 9
53 60 5
53 61 2
53 62 2
53 64 8
53 69 10
53 70 4
53 71 3
53 72 1
53 75 10
53 76 3
53 77 2
53 79 2
53 83 5
53 84 6
53 88 5
53 90 3
53 91 10
53 92 1
53 93 5
53 94 8
53 96 1
53 97 3
53 98 6
53 99 5
53 103 3
53 104 2
53 108 6
53 111 8
53 113 5
53 115 5
53 117 2
53 118 9
53 120 2
53 121 10
53 122 9
53 123 1
53 126 8
53 127 5
53 128 7
53 129 8
53 130 5
53 134 5
53 136 9
53 137 5
53 139 10
53 142 8
53 143 9
53 146 9
53 149 8
53 150 8
53 151 2
53 152 2
53 153 6
53 157 5
53 159 2
53 160 10
53 164 5
53 167 4
53 168 5
53 169 1
53 170 2
53 172 9
53 175 5
53 178 9
53 180 6
53 181 6
53 183 10
53 184 10
53 186 10
53 187 6
53 190 6
53 191 5
53 195 8
53 196 6
53 198 4
54 58 1
54 59 6
54 61 6
54 63 9
54 66 9
54 67 9
54 69 5
54 70 3
54 71 6
54 73 1
54 75 5
54 76 6
54 78 2
54 79 3
54 83 4
54 84 8
54 85 7
54 87 6
54 88 6
54 89 4
54 94 8
54 98 1
54 99 9
54 103 10
54 106 2
54 107 5
54 111 8
54 112 5
54 114 9
54 116 6
54 117 5
54 119 10
54 120 10
54 125 6
54 127 9
54 128 1
54 129 1
54 131 3
54 133 2
54 135 2
54 136 4
54 138 4
54 142 1
54 147 2
54 148 8
54 149 10
54 153 4
54 156 9
54 158 8
54 159 3
54 160 1
54 162 7
54 167 5
54 170 7
54 171 4
54 174 2
54 177 4
54 178 10
54 179 9
54 180 9
54 181 4
54 182 6
54 183 2
54 184 4
54 190 10
54 192 7
54 193 2
54 194 8
54 195 8
54 198 5
54 199 3
55 56 3
55 57 2
55 58 7
55 59 5
55 61 2
55 63 9
55 66 8
55 68 7
55 69 5
55 70 3
55 71 2
55 76 6
55 77 6
55 78 5
55 80 8
55 82 1
55 84 8
55 86 5
55 87 1
55 91 8
55 92 8
55 96 4
55 98 5
55 100 5
55 105 6
55 106 1
55 107 2
55 108 2
55 111 9
55 113 2
55 116 8
55 121 8
55 122 9
55 123 3
55 124 2
55 127 9
55 129 4
55 130 10
55 133 10
55 134 2
55 135 6
55 136 1
55 139 4
55 140 3
55 142 3
55 143 6
55 144 7
55 145 6
55 146 1
55 147 8
55 148 9
55 149 4
55 151 10
55 154 3
55 155 4
55 156 2
55 158 3
55 159 9
55 160 5
55 161 6
55 165 2
55 167 2
55 168 1
55 169 8
55 173 3
55 178 6
55 182 7
55 184 6
55 185 10
55 186 4
55 190 5
55 191 4
55 194 9
55 195 9
55 196 7
55 198 2
55 199 10
56 58 4
56 59 8
56 67 5
56 68 4
56 69 1
56 71 5
56 72 4
56 75 10
56 77 5
56 78 3
56 80 4
56 82 1
56 83 1
56 85 2
56 86 5
56 88 1
56 89 5
56 92 3
56 94 4
56 97 1
56 98 5
56 103 7
56 105 4
56 107 9
56 111 9
56 112 2
56 113 10
56 114 3
56 115 7
56 118 3
56 119 3
56 120 3
56 122 8
56 127 6
56 128 5
56 130 4
56 131 5
56 132 6
56 133 6
56 136 3
56 142 3
56 144 7
56 145 10
56 149 6
56 152 1
56 154 8
56 155 5
56 161 5
56 162 8
56 163 3
56 164 7
56 168 3
56 171 7
56 173 7
56 174 6
56 176 6
56 178 3
56 179 2
56 183 6
56 184 3
56 188 5
56 190 6
56 191 9
56 192 7
56 193 3
56 195 4
56 197 1
56 198 3
56 199 5
57 58 2
57 59 1
57 60 6
57 61 5
57 63 7
57 64 5
57 66 6
57 67 4
57 68 4
57 71 10
57 73 7
57 75 5
57 77 7
57 80 6
57 81 4
57 82 2
57 86 3
57 88 4
57 89 9
57 90 3
57 91 2
57 94 3
57 97 8
57 98 9
57 99 6
57 100 8
57 101 2
57 102 5
57 103 2
57 104 10
57 110 9
57 111 10
57 113 2
57 114 10
57 115 3
57 117 6
57 121 9
57 122 2
57 123 3
57 124 7
57 125 7
57 126 2
57 128 8
57 131 3
57 134 1
57 135 6
57 137 2
57 138 5
57 140 1
57 142 7
57 144 1
57 145 10
57 146 9
57 147 6
57 148 9
57 149 10
57 150 2
57 155 7
57 157 9
57 158 6
57 160 2
57 163 3
57 164 4
57 166 6
57 167 4
57 168 1
57 169 10
57 170 8
57 171 2
57 173 8
57 175 1
57 176 6
57 181 3
57 182 1
57 183 4
57 188 2
57 189 8
57 191 3
57 192 7
57 193 9
57 198 3
57 199 4
57 200 4
58 64 9
58 65 6
58 67 10
58 69 9
58 72 7
58 73 2
58 78 8
58 80 1
58 83 5
58 85 2
58 87 9
58 88 7
58 89 3
58 91 8
58 93 10
58 94 6
58 99 4
58 102 9
58 103 2
58 108 8
58 109 7
58 110 3
58 111 4
58 112 5
58 117 6
58 119 8
58 121 4
58 125 4
58 126 7
58 129 3
58 130 10
58 132 7
58 133 8
58 134 9
58 136 2
58 137 6
58 141 9
58 143 3
58 145 4
58 146 10
58 147 7
58 151 3
58 152 6
58 154 4
58 155 2
58 158 10
58 159 2
58 162 4
58 163 7
58 167 8
58 168 3
58 171 1
58 172 4
58 173 3
58 174 8
58 176 7
58 177 6
58 178 10
58 180 3
58 181 10
58 182 10
58 183 6
58 185 6
58 187 4
58 188 2
58 189 9
58 190 7
58 191 8
58 194 5
58 197 5
58 198 9
58 199 6
58 200 7
59 60 1
59 61 3
59 63 8
59 67 6
59 68 3
59 69 7
59 71 1
59 72 7
59 73 8
59 76 8
59 79 9
59 82 4
59 83 2
59 84 9
59 85 7
59 86 7
59 89 5
59 90 10
59 91 10
59 92 7
59 93 8
59 94 8
59 96 10
59 99 3
59 100 8
59 101 7
59 109 5
59 111 6
59 112 8
59 113 3
59 114 3
59 115 4
59 116 10
59 118 1
59 120 2
59 123 7
59 127 6
59 128 3
59 129 5
59 130 9
59 131 3
59 135 6
59 136 8
59 137 3
59 142 2
59 143 7
59 144 2
59 145 7
59 148 8
59 150 9
59 151 9
59 153 2
59 154 1
59 155 10
59 156 9
59 158 7
59 159 2
59 161 9
59 162 9
59 164 5
59 168 9
59 169 10
59 170 1
59 171 3
59 172 2
59 173 8
59 174 1
59 175 6
59 177 8
59 179 2
59 180 7
59 182 7
59 183 2
59 184 7
59 185 1
59 186 2
59 190 2
59 191 7
59 192 6
59 195 10
59 197 9
60 61 4
60 62 1
60 63 6
60 66 2
60 67 9
60 68 4
60 72 1
60 78 8
60 79 5
60 80 2
60 81 6
60 85 5
60 87 1
60 90 9
60 92 9
60 94 2
60 96 6
60 97 6
60 98 4
60 99 6
60 103 3
60 104 10
60 105 6
60 107 4
60 108 8
60 109 9
60 110 7
60 111 5
60 113 2
60 114 1
60 115 10
60 116 4
60 117 2
60 118 3
60 120 2
60 121 8
60 123 4
60 124 6
60 127 5
60 130 8
60 133 7
60 135 2
60 138 4
60 141 1
60 142 2
60 143 6
60 145 6
60 146 3
60 149 8
60 152 6
60 153 4
60 154 10
60 155 2
60 157 10
60 158 8
60 160 9
60 162 10
60 163 2
60 168 4
60 169 3
60 171 8
60 173 5
60 178 5
60 179 10
60 184 2
60 185 5
60 187 5
60 189 10
60 190 9
60 192 5
60 193 3
60 194 6
60 196 6
60 198 5
60 199 5
60 200 4
61 63 4
61 66 2
61 68 1
61 70 7
61 72 4
61 73 4
61 79 5
61 80 8
61 82 6
61 89 8
61 91 10
61 93 4
61 96 2
61 98 2
61 103 3
61 107 3
61 109 8
61 110 3
61 111 4
61 112 9
61 114 5
61 116 6
61 117 1
61 120 1
61 121 10
61 122 3
61 123 8
61 125 10
61 127 6
61 128 10
61 130 10
61 131 6
61 133 8
61 134 9
61 135 1
61 138 7
61 142 7
61 145 2
61 148 8
61 150 3
61 151 4
61 152 8
61 153 4
61 154 2
61 155 5
61 156 6
61 157 6
61 162 9
61 164 2
61 166 9
61 167 1
61 169 5
61 171 10
61 172 6
61 174 8
61 178 9
61 179 2
61 184 1
61 185 7
61 186 7
61 187 1
61 188 3
61 189 5
61 190 2
61 192 2
61 194 4
61 195 7
61 198 5
62 63 6
62 64 2
62 65 1
62 66 9
62 68 2
62 69 5
62 70 8
62 71 10
62 72 10
62 73 1
62 76 6
62 77 10
62 78 10
62 79 1
62 81 6
62 82 5
62 83 8
62 85 9
62 86 8
62 87 7
62 88 6
62 89 7
62 90 3
62 91 8
62 92 4
62 93 10
62 94 8
62 96 3
62 97 8
62 98 4
62 102 4
62 106 8
62 108 2
62 109 7
62 115 10
62 116 4
62 119 4
62 121 4
62 125 3
62 128 5
62 132 6
62 133 5
62 135 1
62 137 2
62 138 1
62 139 7
62 140 10
62 141 5
62 142 7
62 145 7
62 147 1
62 148 4
62 149 10
62 151 6
62 153 4
62 154 1
62 158 8
62 160 3
62 162 1
62 164 4
62 165 9
62 166 5
62 168 10
62 169 8
62 174 5
62 175 6
62 176 2
62 178 7
62 179 9
62 182 6
62 185 3
62 188 4
62 191 5
62 192 8
62 193 9
62 195 7
62 196 7
62 200 7
63 66 4
63 68 9
63 70 5
63 71 3
63 72 9
63 73 10
63 74 7
63 75 9
63 79 8
63 80 1
63 81 2
63 83 5
63 84 4
63 85 6
63 87 7
63 88 5
63 89 10
63 91 7
63 92 9
63 94 8
63 95 2
63 96 1
63 98 6
63 100 1
63 101 5
63 103 7
63 104 6
63 105 5
63 106 9
63 109 6
63 112 8
63 113 2
63 114 2
63 116 2
63 117 7
63 120 5
63 121 1
63 122 2
63 126 2
63 128 8
63 130 7
63 131 1
63 132 8
63 133 3
63 135 6
63 139 2
63 141 7
63 142 10
63 146 8
63 147 2
63 149 1
63 151 1
63 152 6
63 153 2
63 155 10
63 156 7
63 157 2
63 158 2
63 159 3
63 160 7
63 161 4
63 162 9
63 163 8
63 165 10
63 171 5
63 174 2
63 176 10
63 177 2
63 179 4
63 180 4
63 181 8
63 182 7
63 183 8
63 184 6
63 185 6
63 187 10
63 188 7
63 189 3
63 190 3
63 191 1
63 192 10
63 193 1
63 194 7
63 196 10
63 199 7
64 65 6
64 69 3
64 70 4
64 72 8
64 73 3
64 76 5
64 78 6
64 79 10
64 82 1
64 84 8
64 86 10
64 87 10
64 88 8
64 89 2
64 91 4
64 92 1
64 94 10
64 95 9
64 96 8
64 99 6
64 100 7
64 106 1
64 108 9
64 109 10
64 112 7
64 116 8
64 118 10
64 119 2
64 120 9
64 121 9
64 122 3
64 128 10
64 133 5
64 134 8
64 140 8
64 141 5
64 143 8
64 147 1
64 149 5
64 151 2
64 152 9
64 153 4
64 155 7
64 156 5
64 157 2
64 158 10
64 159 8
64 160 2
64 161 6
64 163 6
64 164 9
64 166 10
64 167 1
64 170 8
64 171 8
64 172 7
64 173 4
64 175 5
64 176 3
64 181 5
64 182 4
64 184 1
64 185 8
64 186 9
64 188 7
64 190 6
64 192 9
64 193 8
64 198 7
64 200 1
65 72 7
65 76 2
65 77 10
65 80 10
65 81 5
65 86 9
65 87 10
65 90 9
65 91 8
65 93 9
65 94 5
65 96 10
65 98 3
65 99 4
65 101 9
65 105 8
65 106 6
65 109 8
65 113 5
65 115 9
65 118 4
65 119 5
65 120 6
65 121 6
65 122 3
65 125 2
65 127 6
65 129 7
65 131 5
65 132 8
65 133 4
65 136 6
65 137 5
65 139 8
65 143 8
65 144 8
65 145 8
65 147 10
65 148 1
65 149 1
65 151 6
65 156 9
65 157 2
65 158 6
65 160 6
65 162 5
65 163 2
65 164 5
65 170 4
65 171 6
65 172 6
65 174 5
65 176 7
65 177 7
65 178 8
65 179 7
65 180 10
65 183 7
65 185 8
65 186 2
65 187 7
65 188 2
65 191 2
65 193 3
65 196 1
65 199 8
66 72 7
66 73 5
66 74 1
66 77 2
66 81 10
66 82 2
66 84 5
66 85 2
66 87 10
66 88 6
66 89 9
66 90 8
66 94 10
66 95 2
66 97 8
66 98 2
66 99 1
66 100 10
66 101 9
66 104 10
66 109 1
66 110 9
66 111 9
66 117 6
66 118 6
66 119 1
66 121 3
66 122 9
66 125 2
66 126 7
66 128 5
66 132 4
66 133 4
66 134 4
66 135 7
66 136 5
66 137 3
66 138 2
66 142 8
66 143 10
66 146 4
66 147 10
66 148 2
66 149 4
66 150 1
66 152 2
66 154 5
66 156 10
66 157 7
66 160 9
66 162 8
66 163 3
66 165 10
66 167 9
66 168 4
66 173 5
66 174 1
66 177 7
66 178 10
66 179 5
66 180 6
66 181 6
66 182 4
66 183 2
66 184 7
66 186 4
66 189 1
66 194 8
66 195 8
66 196 7
66 198 3
66 200 4
67 68 9
67 71 5
67 74 1
67 75 7
67 76 5
67 77 2
67 78 1
67 79 1
67 81 2
67 83 7
67 85 9
67 86 4
67 87 4
67 92 4
67 93 6
67 94 2
67 95 1
67 96 8
67 97 7
67 101 5
67 103 1
67 107 10
67 109 3
67 111 5
67 112 7
67 113 3
67 114 4
67 116 7
67 117 9
67 118 7
67 120 6
67 122 8
67 124 4
67 125 5
67 129 2
67 130 7
67 133 10
67 135 6
67 143 7
67 144 5
67 145 7
67 148 5
67 149 6
67 150 9
67 151 8
67 152 5
67 156 9
67 157 6
67 163 1
67 169 8
67 170 1
67 171 7
67 176 5
67 177 5
67 179 9
67 180 1
67 182 6
67 183 7
67 184 1
67 185 1
67 187 8
67 190 7
67 191 4
67 194 8
67 195 8
67 197 7
67 199 1
68 72 8
68 74 9
68 75 3
68 79 4
68 84 1
68 85 9
68 86 4
68 90 9
68 93 10
68 94 8
68 95 10
68 96 5
68 98 7
68 99 4
68 100 9
68 101 3
68 102 10
68 107 3
68 109 4
68 110 1
68 111 7
68 116 7
68 117 2
68 119 7
68 120 1
68 121 1
68 127 8
68 130 10
68 133 10
68 136 10
68 137 9
68 139 6
68 140 9
68 141 5
68 142 6
68 143 10
68 144 5
68 146 6
68 149 3
68 150 8
68 151 1
68 153 1
68 156 3
68 157 1
68 160 10
68 164 4
68 167 2
68 170 9
68 171 3
68 172 5
68 175 5
68 177 4
68 179 2
68 180 2
68 182 3
68 183 6
68 185 2
68 186 10
68 187 6
68 188 7
68 189 4
68 190 5
68 193 9
68 195 6
68 196 8
68 198 1
69 70 5
69 74 5
69 75 8
69 79 6
69 80 2
69 82 3
69 87 9
69 88 1
69 89 1
69 90 10
69 91 2
69 92 3
69 97 4
69 99 1
69 100 8
69 102 1
69 103 9
69 104 8
69 107 8
69 114 3
69 115 1
69 116 9
69 118 3
69 119 9
69 121 1
69 124 2
69 125 3
69 126 10
69 127 2
69 128 6
69 129 2
69 131 3
69 134 8
69 136 4
69 138 10
69 139 4
69 142 2
69 143 10
69 144 10
69 145 10
69 148 8
69 149 7
69 150 10
69 152 8
69 154 3
69 157 7
69 163 1
69 169 3
69 170 3
69 172 6
69 179 9
69 180 8
69 181 6
69 182 9
69 183 5
69 184 1
69 188 1
69 191 8
69 192 1
69 193 7
69 194 4
69 195 9
69 197 2
69 199 1
70 71 4
70 74 1
70 75 10
70 76 3
70 83 4
70 86 4
70 89 9
70 95 9
70 97 4
70 98 9
70 99 7
70 103 2
70 106 7
70 108 9
70 113 6
70 114 5
70 115 10
70 116 6
70 117 5
70 118 4
70 119 6
70 122 2
70 125 10
70 126 4
70 129 10
70 130 1
70 132 2
70 133 1
70 137 5
70 138 2
70 140 6
70 141 2
70 142 8
70 143 4
70 144 7
70 145 7
70 146 7
70 148 6
70 150 3
70 151 2
70 152 7
70 153 9
70 159 6
70 162 1
70 164 10
70 165 8
70 168 2
70 170 9
70 173 3
70 176 10
70 179 2
70 181 5
70 183 2
70 186 1
70 187 2
70 188 8
70 189 4
70 190 10
70 191 4
70 192 6
70 193 3
70 197 9
70 199 9
70 200 1
71 72 1
71 73 3
71 74 4
71 75 9
71 76 7
71 78 7
71 80 4
71 81 4
71 86 1
71 87 4
71 91 6
71 92 5
71 96 7
71 97 10
71 99 3
71 100 9
71 101 6
71 102 7
71 103 1
71 104 9
71 108 9
71 111 1
71 117 4
71 118 9
71 119 5
71 120 4
71 123 2
71 124 4
71 129 2
71 133 2
71 134 6
71 135 2
71 137 5
71 139 4
71 142 6
71 143 9
71 144 1
71 145 3
71 147 6
71 160 5
71 161 4
71 164 7
71 168 3
71 173 6
71 179 2
71 180 2
71 182 9
71 184 2
71 186 7
71 187 5
71 188 1
71 189 7
71 191 4
71 193 9
71 195 1
71 196 7
71 197 3
71 200 5
72 74 4
72 75 2
72 76 4
72 80 10
72 82 6
72 84 2
72 87 1
72 92 7
72 93 8
72 94 6
72 95 10
72 96 5
72 101 10
72 102 8
72 104 10
72 105 10
72 106 2
72 107 9
72 108 5
72 109 10
72 111 4
72 113 5
72 116 4
72 117 9
72 122 1
72 123 10
72 125 5
72 126 7
72 127 7
72 130 1
72 133 5
72 134 8
72 136 7
72 137 6
72 138 1
72 141 6
72 142 7
72 145 3
72 147 8
72 149 4
72 151 1
72 152 9
72 155 8
72 157 8
72 160 8
72 161 7
72 163 6
72 164 4
72 168 1
72 169 4
72 171 5
72 174 4
72 175 5
72 178 9
72 183 6
72 188 3
72 195 1
72 196 5
72 199 4
73 74 8
73 75 2
73 77 6
73 80 4
73 81 2
73 82 5
73 84 3
73 85 1
73 87 3
73 90 1
73 93 3
73 94 8
73 95 9
73 100 10
73 103 4
73 107 9
73 108 10
73 109 5
73 110 4
73 113 9
73 114 1
73 115 10
73 116 10
73 117 4
73 120 1
73 121 6
73 122 7
73 123 4
73 124 1
73 125 9
73 128 3
73 129 10
73 130 3
73 131 9
73 132 10
73 135 7
73 136 3
73 137 7
73 139 4
73 140 3
73 142 2
73 143 7
73 145 3
73 146 2
73 149 5
73 151 3
73 152 3
73 153 5
73 155 3
73 156 2
73 158 1
73 160 2
73 161 3
73 164 5
73 167 3
73 169 2
73 171 6
73 174 1
73 175 2
73 176 8
73 180 3
73 183 1
73 184 8
73 185 9
73 187 2
73 189 2
73 194 9
73 197 4
73 198 9
74 78 2
74 79 4
74 82 2
74 84 1
74 85 4
74 87 10
74 89 1
74 91 9
74 94 1
74 95 7
74 96 10
74 100 2
74 103 7
74 104 9
74 109 3
74 110 4
74 111 9
74 113 2
74 115 9
74 124 8
74 130 10
74 138 9
74 141 4
74 143 6
74 144 6
74 149 3
74 150 2
74 156 3
74 157 5
74 158 4
74 159 1
74 160 8
74 163 9
74 165 5
74 166 4
74 168 9
74 170 5
74 171 6
74 174 6
74 175 4
74 176 7
74 177 5
74 180 7
74 181 6
74 182 4
74 184 9
74 187 5
74 189 6
74 190 5
74 191 5
74 193 7
74 195 5
74 196 8
74 198 5
74 199 6
74 200 5
75 77 9
75 79 6
75 81 5
75 82 10
75 85 8
75 86 8
75 87 4
75 89 10
75 92 8
75 93 2
75 94 6
75 95 7
75 97 10
75 100 6
75 101 9
75 102 5
75 108 4
75 111 4
75 113 6
75 115 5
75 116 9
75 118 7
75 121 5
75 122 6
75 126 8
75 127 2
75 130 1
75 132 5
75 133 2
75 134 9
75 138 8
75 139 1
75 140 9
75 141 7
75 142 7
75 145 4
75 147 5
75 150 2
75 151 10
75 152 5
75 153 5
75 155 5
75 158 2
75 162 2
75 163 4
75 164 5
75 165 9
75 166 2
75 169 10
75 170 7
75 172 2
75 174 8
75 175 2
75 178 4
75 180 2
75 181 7
75 182 4
75 185 7
75 190 4
75 192 3
75 193 2
75 194 1
75 195 8
75 196 10
75 198 4
75 199 1
76 77 10
76 78 5
76 79 4
76 80 9
76 81 4
76 82 2
76 85 5
76 90 9
76 91 9
76 93 5
76 96 8
76 99 4
76 100 8
76 101 1
76 102 1
76 103 3
76 107 8
76 108 7
76 109 5
76 110 9
76 111 8
76 112 10
76 119 8
76 122 4
76 124 7
76 126 3
76 127 5
76 128 9
76 130 8
76 134 10
76 136 10
76 140 5
76 145 1
76 146 9
76 149 2
76 155 4
76 157 1
76 160 10
76 164 4
76 169 3
76 170 8
76 171 9
76 172 4
76 173 8
76 177 2
76 179 2
76 183 1
76 186 8
76 187 1
76 188 3
76 189 8
76 192 9
76 193 3
76 194 7
76 195 9
76 198 8
76 200 5
77 79 8
77 80 1
77 81 8
77 82 7
77 83 1
77 84 10
77 85 5
77 87 7
77 88 10
77 91 2
77 92 7
77 93 4
77 95 10
77 96 6
77 97 8
77 101 2
77 104 6
77 108 7
77 113 8
77 114 3
77 117 5
77 119 1
77 120 3
77 121 6
77 123 6
77 127 8
77 133 1
77 135 10
77 137 7
77 138 1
77 139 6
77 140 9
77 141 4
77 143 6
77 146 7
77 148 8
77 151 1
77 152 3
77 155 6
77 160 4
77 162 1
77 164 6
77 167 8
77 169 2
77 171 7
77 174 4
77 175 4
77 178 2
77 179 2
77 180 1
77 181 1
77 182 2
77 184 10
77 187 10
77 189 10
77 192 6
77 196 1
77 197 10
77 198 2
77 200 5
78 80 9
78 82 9
78 83 1
78 84 9
78 85 3
78 90 5
78 94 4
78 96 10
78 97 6
78 98 3
78 100 2
78 103 4
78 104 7
78 107 8
78 108 5
78 110 10
78 112 3
78 114 5
78 115 6
78 118 2
78 119 3
78 120 1
78 121 6
78 122 8
78 126 3
78 127 7
78 128 9
78 129 4
78 130 3
78 133 7
78 137 8
78 138 4
78 140 8
78 142 9
78 145 8
78 146 10
78 148 7
78 155 8
78 156 10
78 160 10
78 161 6
78 164 4
78 165 1
78 169 8
78 172 7
78 173 6
78 175 5
78 177 4
78 178 2
78 179 6
78 180 6
78 181 1
78 187 5
78 189 3
78 191 3
78 193 1
78 199 8
79 82 5
79 91 1
79 92 7
79 93 5
79 96 6
79 99 8
79 102 7
79 103 8
79 104 7
79 109 6
79 110 4
79 111 8
79 112 6
79 113 8
79 114 4
79 115 2
79 116 10
79 117 7
79 118 5
79 120 5
79 124 6
79 125 7
79 127 2
79 129 1
79 130 9
79 131 10
79 132 10
79 133 6
79 135 2
79 139 7
79 142 6
79 144 1
79 145 7
79 147 3
79 150 10
79 156 7
79 158 6
79 159 1
79 160 3
79 161 6
79 162 3
79 163 10
79 164 5
79 168 10
79 169 1
79 170 6
79 172 5
79 176 8
79 180 5
79 181 9
79 182 3
79 185 9
79 186 7
79 187 2
79 188 6
79 194 10
79 195 1
79 200 8
80 82 6
80 83 8
80 84 4
80 86 8
80 88 1
80 89 6
80 91 8
80 92 2
80 94 10
80 96 5
80 98 8
80 99 5
80 103 2
80 104 3
80 105 5
80 106 6
80 109 5
80 115 7
80 120 10
80 126 6
80 129 7
80 130 2
80 136 9
80 142 9
80 146 6
80 148 8
80 150 5
80 151 1
80 157 1
80 158 1
80 159 8
80 162 1
80 163 8
80 166 1
80 168 7
80 169 10
80 170 10
80 172 1
80 178 5
80 182 4
80 183 4
80 185 4
80 186 7
80 188 3
80 189 6
80 191 1
80 193 1
80 194 9
80 197 7
80 199 3
80 200 8
81 82 3
81 83 7
81 84 2
81 87 1
81 88 1
81 89 4
81 91 7
81 92 1
81 93 3
81 96 1
81 97 5
81 98 4
81 99 1
81 100 1
81 101 10
81 102 3
81 106 6
81 107 8
81 109 10
81 111 2
81 112 4
81 115 7
81 118 5
81 119 6
81 125 3
81 126 7
81 129 9
81 131 8
81 132 9
81 133 2
81 135 8
81 136 7
81 138 8
81 139 5
81 144 1
81 146 2
81 148 2
81 151 6
81 153 4
81 154 10
81 156 9
81 157 6
81 159 7
81 160 5
81 161 4
81 163 9
81 164 5
81 165 3
81 167 4
81 168 8
81 172 2
81 173 6
81 174 3
81 175 5
81 177 2
81 181 10
81 183 1
81 184 2
81 186 4
81 188 8
81 190 5
81 191 3
81 192 5
81 199 7
82 84 6
82 86 2
82 87 4
82 89 10
82 96 3
82 97 7
82 100 3
82 102 1
82 104 9
82 105 1
82 108 8
82 113 2
82 114 4
82 115 9
82 118 9
82 119 7
82 120 8
82 124 5
82 128 7
82 129 10
82 131 4
82 135 9
82 137 10
82 139 1
82 140 4
82 143 2
82 144 4
82 148 3
82 149 3
82 153 6
82 154 6
82 155 8
82 157 6
82 158 9
82 159 1
82 160 9
82 161 2
82 162 6
82 165 4
82 169 9
82 175 7
82 179 7
82 180 5
82 184 1
82 187 9
82 188 2
82 189 9
82 193 6
82 196 9
82 197 9
82 198 9
83 86 5
83 91 3
83 93 1
83 97 8
83 98 4
83 100 7
83 101 10
83 103 10
83 108 4
83 109 10
83 110 1
83 111 2
83 112 1
83 113 5
83 114 1
83 116 3
83 117 3
83 118 5
83 120 4
83 121 8
83 123 1
83 126 7
83 129 7
83 130 10
83 132 10
83 133 10
83 139 9
83 140 6
83 141 7
83 142 9
83 143 7
83 144 3
83 145 4
83 146 7
83 148 2
83 149 6
83 151 1
83 152 6
83 153 4
83 154 5
83 157 10
83 158 2
83 162 10
83 163 10
83 165 10
83 167 10
83 171 9
83 173 7
83 174 2
83 175 7
83 180 7
83 185 8
83 188 4
83 189 2
83 190 1
83 192 8
83 194 8
83 195 5
83 197 10
83 198 4
83 199 3
83 200 2
84 85 5
84 89 5
84 91 4
84 93 4
84 94 10
84 95 7
84 99 5
84 100 8
84 102 2
84 104 6
84 111 4
84 114 3
84 119 8
84 120 6
84 121 7
84 124 2
84 125 10
84 127 1
84 129 9
84 130 4
84 133 6
84 140 1
84 141 1
84 142 4
84 143 5
84 150 7
84 152 7
84 154 5
84 155 2
84 158 3
84 163 10
84 164 5
84 165 10
84 166 2
84 169 6
84 170 5
84 172 9
84 173 2
84 181 9
84 182 2
84 183 9
84 188 4
84 189 9
84 190 6
84 193 8
84 196 7
84 197 4
85 86 8
85 87 2
85 89 10
85 90 3
85 92 6
85 93 2
85 94 4
85 97 5
85 99 9
85 101 7
85 102 9
85 104 5
85 105 6
85 106 6
85 107 10
85 108 5
85 109 10
85 110 4
85 114 10
85 115 5
85 118 1
85 119 7
85 120 7
85 121 3
85 125 9
85 128 9
85 131 8
85 132 8
85 133 8
85 134 10
85 135 3
85 138 3
85 143 10
85 146 4
85 147 6
85 149 5
85 150 4
85 151 6
85 153 8
85 158 5
85 160 7
85 162 7
85 163 5
85 164 9
85 165 1
85 169 6
85 170 1
85 171 2
85 172 3
85 174 7
85 176 4
85 177 3
85 179 6
85 180 7
85 182 2
85 188 2
85 189 1
85 190 8
85 191 10
85 192 7
85 194 6
85 195 2
85 198 7
85 200 7
86 87 9
86 90 3
86 93 5
86 94 6
86 99 10
86 100 8
86 101 10
86 102 10
86 103 1
86 106 8
86 107 4
86 108 10
86 115 9
86 116 7
86 124 1
86 128 2
86 129 2
86 130 9
86 137 8
86 138 6
86 139 5
86 141 8
86 143 7
86 146 6
86 147 7
86 151 4
86 153 8
86 154 10
86 156 6
86 162 6
86 163 6
86 164 3
86 165 7
86 170 5
86 173 10
86 174 7
86 176 10
86 179 8
86 180 8
86 181 2
86 184 3
86 185 10
86 188 6
86 192 2
86 194 4
86 196 4
86 198 10
86 199 5
87 88 9
87 90 8
87 91 2
87 92 8
87 94 7
87 95 4
87 97 8
87 99 4
87 100 6
87 101 5
87 104 10
87 105 6
87 106 5
87 107 9
87 115 5
87 121 2
87 122 3
87 124 5
87 126 5
87 127 6
87 132 4
87 133 5
87 135 4
87 142 8
87 143 8
87 146 4
87 149 6
87 150 3
87 154 2
87 155 8
87 156 7
87 158 9
87 163 5
87 164 1
87 166 7
87 168 9
87 169 9
87 170 4
87 171 9
87 172 9
87 173 4
87 174 5
87 176 6
87 181 3
87 182 8
87 184 5
87 185 2
87 187 3
87 188 6
87 190 4
87 195 2
87 197 9
87 199 10
88 89 6
88 90 10
88 94 9
88 96 4
88 97 3
88 98 10
88 100 5
88 102 4
88 104 10
88 105 1
88 106 8
88 108 10
88 114 3
88 115 6
88 119 3
88 121 6
88 123 5
88 126 6
88 127 3
88 129 5
88 133 3
88 134 5
88 140 7
88 143 10
88 147 9
88 151 8
88 152 4
88 153 9
88 154 7
88 156 5
88 158 1
88 162 6
88 165 5
88 168 5
88 173 6
88 174 4
88 176 1
88 177 2
88 179 3
88 182 10
88 185 4
88 186 9
88 189 10
88 190 8
88 193 9
88 194 10
88 196 7
88 197 4
89 90 9
89 91 10
89 92 1
89 93 10
89 94 4
89 97 4
89 98 10
89 101 3
89 102 8
89 103 4
89 104 8
89 106 2
89 107 1
89 108 2
89 109 7
89 110 6
89 111 10
89 116 4
89 119 5
89 120 9
89 121 6
89 122 9
89 123 5
89 124 6
89 125 1
89 129 6
89 131 4
89 133 6
89 137 4
89 140 1
89 141 2
89 144 3
89 146 4
89 153 1
89 155 6
89 156 5
89 159 10
89 160 6
89 162 9
89 163 10
89 164 10
89 166 7
89 168 8
89 172 9
89 174 10
89 175 5
89 179 2
89 180 2
89 182 5
89 185 8
89 186 6
89 188 9
89 189 7
89 193 6
89 195 1
89 198 1
89 200 10
90 91 4
90 92 7
90 93 2
90 94 2
90 99 9
90 101 5
90 103 9
90 104 2
90 105 6
90 106 6
90 108 2
90 113 10
90 114 5
90 118 5
90 120 8
90 122 4
90 124 10
90 125 8
90 126 10
90 129 3
90 130 9
90 132 1
90 133 10
90 134 6
90 135 4
90 138 6
90 140 1
90 141 8
90 143 10
90 144 10
90 146 8
90 147 4
90 148 4
90 150 3
90 154 4
90 157 5
90 160 4
90 161 8
90 163 5
90 164 9
90 165 5
90 167 6
90 168 4
90 169 6
90 175 10
90 177 5
90 181 8
90 182 5
90 185 4
90 190 3
90 191 6
90 192 1
90 193 7
90 197 9
90 199 5
91 93 5
91 94 9
91 95 7
91 96 10
91 99 1
91 101 2
91 104 8
91 107 4
91 108 9
91 109 10
91 112 4
91 113 8
91 114 5
91 116 2
91 119 10
91 122 9
91 125 10
91 126 2
91 127 10
91 129 6
91 131 7
91 132 6
91 133 9
91 134 5
91 135 6
91 137 6
91 140 2
91 141 7
91 142 3
91 143 10
91 144 4
91 145 2
91 151 5
91 152 3
91 154 2
91 157 4
91 158 7
91 159 5
91 160 8
91 161 5
91 162 10
91 163 9
91 164 10
91 168 8
91 170 3
91 176 3
91 177 3
91 179 3
91 181 1
91 182 5
91 185 10
91 186 10
91 187 3
91 191 1
91 192 7
91 193 8
91 194 1
91 197 8
91 200 8
92 101 1
92 104 7
92 106 1
92 107 7
92 110 9
92 112 8
92 114 2
92 115 9
92 117 8
92 120 1
92 125 10
92 128 8
92 132 2
92 133 2
92 134 9
92 140 10
92 141 10
92 142 1
92 149 3
92 150 2
92 151 9
92 152 1
92 155 9
92 156 2
92 157 1
92 161 8
92 165 1
92 168 4
92 170 2
92 171 10
92 174 1
92 175 7
92 177 9
92 180 1
92 181 10
92 182 3
92 184 3
92 186 10
92 187 8
92 188 1
92 191 5
92 192 1
92 193 9
92 194 10
92 197 2
92 198 6
92 200 3
93 95 1
93 96 7
93 101 4
93 104 3
93 107 6
93 111 3
93 112 4
93 116 2
93 118 4
93 121 2
93 123 4
93 126 6
93 128 4
93 131 2
93 132 9
93 134 6
93 135 9
93 136 10
93 138 4
93 140 7
93 141 2
93 143 7
93 146 5
93 147 10
93 149 10
93 150 8
93 152 7
93 153 8
93 154 10
93 157 10
93 160 6
93 161 4
93 162 1
93 164 7
93 165 3
93 166 8
93 167 6
93 169 7
93 171 10
93 173 6
93 175 5
93 176 2
93 179 2
93 181 2
93 189 6
93 192 2
93 193 9
93 194 9
93 195 2
93 197 10
93 199 4
93 200 7
94 95 4
94 98 8
94 102 1
94 106 10
94 107 5
94 109 6
94 111 3
94 112 9
94 118 5
94 119 5
94 120 6
94 126 4
94 127 9
94 130 7
94 133 1
94 134 3
94 135 7
94 136 4
94 138 1
94 140 6
94 141 8
94 144 8
94 147 2
94 149 4
94 150 5
94 151 6
94 157 8
94 158 3
94 160 5
94 161 6
94 162 6
94 164 6
94 167 6
94 168 9
94 169 2
94 170 10
94 171 7
94 173 5
94 176 2
94 177 6
94 179 7
94 182 7
94 183 6
94 184 5
94 188 7
94 190 10
94 191 3
94 192 7
94 193 10
94 194 7
94 196 7
95 96 6
95 98 7
95 99 10
95 101 9
95 103 9
95 104 3
95 105 7
95 106 10
95 107 9
95 110 10
95 111 8
95 112 7
95 119 7
95 121 2
95 123 2
95 124 5
95 125 7
95 126 1
95 127 9
95 128 2
95 134 8
95 137 2
95 138 1
95 139 1
95 142 2
95 146 9
95 153 1
95 155 3
95 156 6
95 157 7
95 159 8
95 161 6
95 170 5
95 171 5
95 172 5
95 174 7
95 175 4
95 179 3
95 182 4
95 183 8
95 185 10
95 189 1
95 191 1
95 193 1
95 194 7
95 198 5
95 199 4
96 98 8
96 99 6
96 100 5
96 101 3
96 102 9
96 103 10
96 104 5
96 105 7
96 106 3
96 112 10
96 113 3
96 116 10
96 117 8
96 122 10
96 123 4
96 125 4
96 126 1
96 131 9
96 133 1
96 134 8
96 136 9
96 137 6
96 138 9
96 139 4
96 140 2
96 145 1
96 147 10
96 150 10
96 154 8
96 155 7
96 156 5
96 157 5
96 158 2
96 159 7
96 160 3
96 161 4
96 162 3
96 163 1
96 164 9
96 166 3
96 169 3
96 170 8
96 171 7
96 175 8
96 176 5
96 178 7
96 180 4
96 182 1
96 183 5
96 184 8
96 190 8
96 191 5
96 192 2
96 193 4
96 196 9
96 197 1
96 199 8
96 200 8
97 98 3
97 100 7
97 104 1
97 106 1
97 107 4
97 108 9
97 110 10
97 111 6
97 112 4
97 113 1
97 115 1
97 119 3
97 120 5
97 123 5
97 124 5
97 126 2
97 127 2
97 129 9
97 130 4
97 131 3
97 133 4
97 135 1
97 137 6
97 138 8
97 140 7
97 142 4
97 145 5
97 146 3
97 147 10
97 148 9
97 151 10
97 153 6
97 154 6
97 159 10
97 162 2
97 171 8
97 173 4
97 176 8
97 177 5
97 178 5
97 181 3
97 183 2
97 184 8
97 188 6
97 189 4
97 190 10
97 192 5
97 195 2
97 200 1
98 100 7
98 102 2
98 103 4
98 106 7
98 109 6
98 111 10
98 112 3
98 114 1
98 118 4
98 119 6
98 122 2
98 123 6
98 126 1
98 127 3
98 131 6
98 132 10
98 133 7
98 136 9
98 137 8
98 141 5
98 142 5
98 145 6
98 148 7
98 150 7
98 154 3
98 156 1
98 158 4
98 159 7
98 161 10
98 162 5
98 163 4
98 164 3
98 165 5
98 166 10
98 168 8
98 169 2
98 171 8
98 173 7
98 175 6
98 177 4
98 178 3
98 182 6
98 183 10
98 184 1
98 185 3
98 186 2
98 187 7
98 194 10
98 196 5
98 198 8
99 100 1
99 103 4
99 104 6
99 105 7
99 108 5
99 110 1
99 113 1
99 117 6
99 120 5
99 121 2
99 123 6
99 126 7
99 131 8
99 132 7
99 133 4
99 134 1
99 136 7
99 137 10
99 139 7
99 142 5
99 146 4
99 148 5
99 150 3
99 151 9
99 155 2
99 159 1
99 161 7
99 167 5
99 168 7
99 169 10
99 171 7
99 176 7
99 177 5
99 179 9
99 182 7
99 183 3
99 185 2
99 186 2
99 187 9
99 189 9
99 191 5
99 192 1
99 194 4
99 195 4
99 196 3
99 197 9
99 198 3
99 200 4
100 101 6
100 107 7
100 108 1
100 109 6
100 113 2
100 114 6
100 115 10
100 116 6
100 117 2
100 118 1
100 121 2
100 123 1
100 124 9
100 128 2
100 130 1
100 131 3
100 134 3
100 135 2
100 136 5
100 137 6
100 138 2
100 140 9
100 143 3
100 148 2
100 151 5
100 153 10
100 156 2
100 158 9
100 159 1
100 161 1
100 162 2
100 163 7
100 169 4
100 171 7
100 172 8
100 173 7
100 174 5
100 175 1
100 178 10
100 179 8
100 181 3
100 183 10
100 184 6
100 185 9
100 189 9
100 190 10
100 191 7
100 194 6
100 195 2
100 197 4
100 198 8
101 103 9
101 104 9
101 105 8
101 106 3
101 107 1
101 108 3
101 111 5
101 113 9
101 114 8
101 115 8
101 116 9
101 117 9
101 118 8
101 120 3
101 123 8
101 126 10
101 127 3
101 128 6
101 130 2
101 134 3
101 137 4
101 138 7
101 141 10
101 143 7
101 144 3
101 145 8
101 150 4
101 153 5
101 154 9
101 158 6
101 159 7
101 163 5
101 164 9
101 168 1
101 169 4
101 171 6
101 174 1
101 178 3
101 180 10
101 181 2
101 182 1
101 184 7
101 185 5
101 186 1
101 188 3
101 191 1
101 194 10
101 197 6
101 199 8
101 200 7
102 103 6
102 105 3
102 113 9
102 117 1
102 118 4
102 119 9
102 120 9
102 121 5
102 127 5
102 129 2
102 130 7
102 133 7
102 137 6
102 141 3
102 142 2
102 143 4
102 145 10
102 148 8
102 157 5
102 161 9
102 166 5
102 167 7
102 170 1
102 171 10
102 172 2
102 173 4
102 174 10
102 177 5
102 178 9
102 179 4
102 183 4
102 186 2
102 187 6
102 189 10
102 190 1
102 191 2
102 192 1
102 193 9
102 195 2
102 199 2
102 200 5
103 104 1
103 105 2
103 107 8
103 110 7
103 111 6
103 112 4
103 113 10
103 116 3
103 117 8
103 118 4
103 120 1
103 121 7
103 122 2
103 123 9
103 125 6
103 127 2
103 129 3
103 130 4
103 131 6
103 133 6
103 134 10
103 135 4
103 136 1
103 137 7
103 138 5
103 139 8
103 140 3
103 141 7
103 144 4
103 145 5
103 147 1
103 148 2
103 151 10
103 152 4
103 156 6
103 157 6
103 160 4
103 164 4
103 165 8
103 166 8
103 168 4
103 169 5
103 170 5
103 174 3
103 176 10
103 180 7
103 181 1
103 188 10
103 189 2
103 193 1
103 194 6
103 200 6
104 105 1
104 107 10
104 108 6
104 110 5
104 112 1
104 116 2
104 117 1
104 120 2
104 122 8
104 125 4
104 126 8
104 128 3
104 129 3
104 130 3
104 132 10
104 136 7
104 138 7
104 139 5
104 141 2
104 142 7
104 146 4
104 148 8
104 149 3
104 151 1
104 152 6
104 154 6
104 159 5
104 160 7
104 162 8
104 166 7
104 167 10
104 174 10
104 179 7
104 184 3
104 185 4
104 190 8
104 192 3
104 194 5
104 195 9
104 196 6
104 200 1
105 109 5
105 111 10
105 113 6
105 121 10
105 122 9
105 124 5
105 125 3
105 126 1
105 127 1
105 131 5
105 132 9
105 134 3
105 138 5
105 139 6
105 142 2
105 143 7
105 144 6
105 145 1
105 147 4
105 149 2
105 151 10
105 152 9
105 153 2
105 154 7
105 155 7
105 161 2
105 164 7
105 166 2
105 169 2
105 173 8
105 175 1
105 176 3
105 177 1
105 181 1
105 183 6
105 184 8
105 185 4
105 187 10
105 189 3
105 190 10
105 191 4
105 192 2
105 194 5
105 196 3
105 198 1
106 110 7
106 111 6
106 114 5
106 115 10
106 117 5
106 121 8
106 124 4
106 128 2
106 129 4
106 132 3
106 134 8
106 137 5
106 141 5
106 148 3
106 149 7
106 150 2
106 151 3
106 152 4
106 153 6
106 154 8
106 158 6
106 160 5
106 165 9
106 171 1
106 174 2
106 175 3
106 177 3
106 178 9
106 179 2
106 181 1
106 182 4
106 185 6
106 190 8
106 192 6
106 194 10
106 195 9
107 108 2
107 109 10
107 110 6
107 111 1
107 115 4
107 117 5
107 122 9
107 123 2
107 124 2
107 126 10
107 127 2
107 130 1
107 131 5
107 132 7
107 133 4
107 134 9
107 136 1
107 137 7
107 138 6
107 139 9
107 142 2
107 143 3
107 145 2
107 147 4
107 149 6
107 150 7
107 151 1
107 152 2
107 155 7
107 156 6
107 157 8
107 158 5
107 159 2
107 162 1
107 164 2
107 165 1
107 167 8
107 168 2
107 171 2
107 172 2
107 173 9
107 174 5
107 176 10
107 179 8
107 180 10
107 182 7
107 185 4
107 189 4
107 190 2
107 194 8
107 196 1
107 199 1
108 109 4
108 110 2
108 111 8
108 114 8
108 115 1
108 116 1
108 118 5
108 120 1
108 122 6
108 126 9
108 129 1
108 131 9
108 135 3
108 136 8
108 137 1
108 139 6
108 140 2
108 141 4
108 143 2
108 144 7
108 146 7
108 147 2
108 152 10
108 155 10
108 162 6
108 163 7
108 165 3
108 168 8
108 169 1
108 170 3
108 171 8
108 175 7
108 176 3
108 177 1
108 178 6
108 179 9
108 180 4
108 181 9
108 186 5
108 189 10
108 190 1
108 192 5
108 194 2
108 195 9
108 196 10
108 200 4
109 110 10
109 112 3
109 116 10
109 117 7
109 119 3
109 120 3
109 122 6
109 126 6
109 127 2
109 131 3
109 135 5
109 136 8
109 137 3
109 138 3
109 139 2
109 140 10
109 142 9
109 143 7
109 144 9
109 145 1
109 146 1
109 147 4
109 148 10
109 149 10
109 150 4
109 151 6
109 153 1
109 154 5
109 155 9
109 159 4
109 160 2
109 161 4
109 162 6
109 163 10
109 164 10
109 168 7
109 169 3
109 172 3
109 173 7
109 174 7
109 175 4
109 179 6
109 181 1
109 182 2
109 184 8
109 185 4
109 186 2
109 188 5
109 192 4
109 195 1
109 196 7
110 111 4
110 112 7
110 116 6
110 119 1
110 121 3
110 122 8
110 124 3
110 126 7
110 131 10
110 132 6
110 134 4
110 136 1
110 139 2
110 140 3
110 142 2
110 143 4
110 144 7
110 148 4
110 155 8
110 156 2
110 158 7
110 159 10
110 160 1
110 163 10
110 165 5
110 168 9
110 176 10
110 177 9
110 180 4
110 182 2
110 183 10
110 184 1
110 185 5
110 186 3
110 190 8
110 192 5
110 196 1
110 198 1
110 199 1
110 200 2
111 112 10
111 114 5
111 116 1
111 117 5
111 121 7
111 122 8
111 126 9
111 127 4
111 133 10
111 134 8
111 138 3
111 140 9
111 141 9
111 143 2
111 145 7
111 149 8
111 151 1
111 153 3
111 154 3
111 156 4
111 157 6
111 158 8
111 163 3
111 164 10
111 165 6
111 166 10
111 167 3
111 174 5
111 175 3
111 176 8
111 177 2
111 179 10
111 180 5
111 182 4
111 186 9
111 187 8
111 188 3
111 190 7
111 192 6
111 193 10
111 195 1
111 197 3
111 199 10
111 200 9
112 114 2
112 115 9
112 116 10
112 118 7
112 119 10
112 120 7
112 121 8
112 122 7
112 123 2
112 124 4
112 126 10
112 129 8
112 132 3
112 134 5
112 135 1
112 138 3
112 139 7
112 145 8
112 147 4
112 148 3
112 149 7
112 151 10
112 153 2
112 155 8
112 158 6
112 162 8
112 164 4
112 166 3
112 167 8
112 168 9
112 169 5
112 173 5
112 174 2
112 175 3
112 176 10
112 177 5
112 178 8
112 179 5
112 181 6
112 182 9
112 185 1
112 188 1
112 189 9
112 190 8
112 191 3
112 195 7
112 196 6
112 197 9
112 199 4
113 116 5
113 117 3
113 121 3
113 123 6
113 125 8
113 126 8
113 127 4
113 128 7
113 129 2
113 130 1
113 132 6
113 133 2
113 134 4
113 135 9
113 137 5
113 139 7
113 145 6
113 147 9
113 149 2
113 156 8
113 160 3
113 161 10
113 164 4
113 165 4
113 166 7
113 167 6
113 168 2
113 169 6
113 170 8
113 171 8
113 172 5
113 173 6
113 174 1
113 176 5
113 178 8
113 180 1
113 181 6
113 183 3
113 184 1
113 185 3
113 186 2
113 190 5
113 192 10
113 194 2
113 197 8
113 199 4
114 117 4
114 118 6
114 119 3
114 120 10
114 122 6
114 123 9
114 126 4
114 128 7
114 129 9
114 133 2
114 135 1
114 136 1
114 137 7
114 139 5
114 142 1
114 143 1
114 144 6
114 146 2
114 147 8
114 148 4
114 152 8
114 153 2
114 158 10
114 161 7
114 162 4
114 163 9
114 164 8
114 165 3
114 166 1
114 167 2
114 168 6
114 171 6
114 172 8
114 175 2
114 176 1
114 178 2
114 181 3
114 183 8
114 184 5
114 186 8
114 188 2
114 190 8
114 191 2
114 192 2
114 193 10
114 194 4
114 197 3
114 198 6
114 199 9
114 200 2
115 116 9
115 117 10
115 121 10
115 122 9
115 126 9
115 128 10
115 129 10
115 131 8
115 132 8
115 134 8
115 137 3
115 141 9
115 144 7
115 148 8
115 151 8
115 154 10
115 155 6
115 156 2
115 157 4
115 158 5
115 160 5
115 168 7
115 170 6
115 174 5
115 175 2
115 177 5
115 179 3
115 180 3
115 182 10
115 184 2
115 186 3
115 187 8
115 190 4
115 191 10
115 193 1
115 196 9
115 198 1
115 199 3
116 117 1
116 118 5
116 119 2
116 122 1
116 124 3
116 125 8
116 126 3
116 133 5
116 134 4
116 135 8
116 139 7
116 140 2
116 143 1
116 145 5
116 146 8
116 147 7
116 152 8
116 154 5
116 155 9
116 156 3
116 157 7
116 162 3
116 163 1
116 164 3
116 166 5
116 167 5
116 169 3
116 170 7
116 172 2
116 173 2
116 179 3
116 181 2
116 184 1
116 187 10
116 188 9
116 189 1
116 190 7
116 191 10
116 192 7
116 193 6
116 195 1
116 198 3
117 119 9
117 125 7
117 126 6
117 131 9
117 133 9
117 134 2
117 135 3
117 137 7
117 138 9
117 140 7
117 141 5
117 146 9
117 147 3
117 150 7
117 151 5
117 153 3
117 154 5
117 155 1
117 156 7
117 158 6
117 159 4
117 162 3
117 165 9
117 166 5
117 170 8
117 172 3
117 176 3
117 177 10
117 181 8
117 183 3
117 184 4
117 186 2
117 187 5
117 192 2
117 195 9
117 197 9
117 198 3
117 200 8
118 122 2
118 124 4
118 126 4
118 128 2
118 131 7
118 132 3
118 133 7
118 134 7
118 135 1
118 136 4
118 137 3
118 138 4
118 146 7
118 147 7
118 149 10
118 152 2
118 157 7
118 158 10
118 159 4
118 162 5
118 163 5
118 164 10
118 167 10
118 169 4
118 171 2
118 175 8
118 179 5
118 181 1
118 182 4
118 183 7
118 185 5
118 188 3
118 189 4
118 191 6
118 200 1
119 120 1
119 121 4
119 122 3
119 127 8
119 128 2
119 129 5
119 132 10
119 134 1
119 135 7
119 136 3
119 139 3
119 140 6
119 142 2
119 143 9
119 144 7
119 150 3
119 153 4
119 159 10
119 160 4
119 161 1
119 162 7
119 164 5
119 166 2
119 171 1
119 172 7
119 173 9
119 175 4
119 176 1
119 177 10
119 180 3
119 181 5
119 182 9
119 184 8
119 185 7
119 188 7
119 194 9
119 195 3
119 196 7
119 200 8
120 121 5
120 122 7
120 124 1
120 126 4
120 128 2
120 131 5
120 134 10
120 138 3
120 139 4
120 140 9
120 141 7
120 142 2
120 143 2
120 145 1
120 146 1
120 147 2
120 149 4
120 150 10
120 152 9
120 154 6
120 155 3
120 157 2
120 159 9
120 161 4
120 164 2
120 165 2
120 168 10
120 169 6
120 170 5
120 171 5
120 172 2
120 176 5
120 179 9
120 180 2
120 182 9
120 183 6
120 185 9
120 188 1
120 189 2
120 190 2
120 191 5
120 192 4
120 193 7
120 197 3
120 198 3
121 122 5
121 125 8
121 128 10
121 131 1
121 132 1
121 134 3
121 135 5
121 138 3
121 139 7
121 140 4
121 141 8
121 142 7
121 143 5
121 144 2
121 145 5
121 146 8
121 149 7
121 151 1
121 154 10
121 155 4
121 157 3
121 159 7
121 162 10
121 164 4
121 165 6
121 166 6
121 169 4
121 171 7
121 172 3
121 173 2
121 175 5
121 182 10
121 184 9
121 185 1
121 187 8
121 189 2
121 191 3
121 193 4
121 200 10
122 128 3
122 129 2
122 134 7
122 135 1
122 136 2
122 138 2
122 139 10
122 142 9
122 143 4
122 144 9
122 147 1
122 148 4
122 155 3
122 156 8
122 157 2
122 159 10
122 160 5
122 161 1
122 162 8
122 163 10
122 164 1
122 166 10
122 167 7
122 173 8
122 177 10
122 178 9
122 179 1
122 180 1
122 182 3
122 183 5
122 187 10
122 188 7
122 190 5
122 195 2
122 199 4
123 124 3
123 125 5
123 129 9
123 131 3
123 132 4
123 135 1
123 137 5
123 138 9
123 139 8
123 143 1
123 144 10
123 146 5
123 148 8
123 152 6
123 155 9
123 157 4
123 162 8
123 164 8
123 166 10
123 168 10
123 172 9
123 173 9
123 175 5
123 176 9
123 179 3
123 180 2
123 182 7
123 185 10
123 187 8
123 188 4
123 189 2
123 191 7
123 193 10
123 194 4
123 195 2
123 196 7
123 198 3
123 199 2
123 200 7
124 125 7
124 126 7
124 127 6
124 130 5
124 132 8
124 136 10
124 138 8
124 139 8
124 140 7
124 143 8
124 144 8
124 145 1
124 147 3
124 149 5
124 150 7
124 152 4
124 156 9
124 161 8
124 162 7
124 164 8
124 165 1
124 168 7
124 169 3
124 170 4
124 171 4
124 172 8
124 173 9
124 174 9
124 176 3
124 181 10
124 182 7
124 184 4
124 187 2
124 188 5
124 190 10
124 192 2
124 193 2
124 194 2
124 195 4
124 196 5
124 197 10
124 199 5
125 126 5
125 129 3
125 130 4
125 132 8
125 133 1
125 139 6
125 140 3
125 141 2
125 142 4
125 143 2
125 144 5
125 145 2
125 146 8
125 148 10
125 151 2
125 152 7
125 154 2
125 155 5
125 156 6
125 158 3
125 162 3
125 163 3
125 164 3
125 168 9
125 170 2
125 173 4
125 176 9
125 177 8
125 179 4
125 180 9
125 181 5
125 182 2
125 185 8
125 186 10
125 187 5
125 188 3
125 191 7
125 192 4
125 193 1
125 194 2
125 196 4
125 197 7
125 199 2
125 200 4
126 128 5
126 130 8
126 131 2
126 134 2
126 139 3
126 140 1
126 141 8
126 142 8
126 143 6
126 144 8
126 146 3
126 147 9
126 148 8
126 155 5
126 158 5
126 159 5
126 160 8
126 167 3
126 168 2
126 171 3
126 173 2
126 177 4
126 178 5
126 180 5
126 181 9
126 182 5
126 185 4
126 188 5
126 189 2
126 190 8
126 192 8
126 193 3
126 195 6
126 198 6
126 200 3
127 128 1
127 129 1
127 130 3
127 131 1
127 132 10
127 133 4
127 135 9
127 136 4
127 137 3
127 138 1
127 140 9
127 141 8
127 143 8
127 144 10
127 146 5
127 147 1
127 149 10
127 158 9
127 159 3
127 161 9
127 162 4
127 164 9
127 165 9
127 170 3
127 174 2
127 175 6
127 176 7
127 181 2
127 182 4
127 184 10
127 185 8
127 186 7
127 188 3
127 189 7
127 192 3
127 197 2
127 199 8
128 133 1
128 136 1
128 138 10
128 140 1
128 144 4
128 145 7
128 146 5
128 149 3
128 151 3
128 153 4
128 158 8
128 160 8
128 162 3
128 164 10
128 165 8
128 166 5
128 167 8
128 170 7
128 171 6
128 172 9
128 178 8
128 182 9
128 183 6
128 185 4
128 186 10
128 187 5
128 188 1
128 189 6
128 191 2
128 194 3
128 195 7
128 199 2
129 131 2
129 132 4
129 134 3
129 135 3
129 136 10
129 137 3
129 138 6
129 143 5
129 144 2
129 147 9
129 150 2
129 152 3
129 154 2
129 157 4
129 158 9
129 159 9
129 161 4
129 163 8
129 167 10
129 169 3
129 174 7
129 175 2
129 180 9
129 181 8
129 183 7
129 187 10
129 188 7
129 189 8
129 190 7
129 192 6
129 193 2
129 197 3
130 131 4
130 134 4
130 138 3
130 142 1
130 147 5
130 148 5
130 150 9
130 151 6
130 153 8
130 154 2
130 158 3
130 159 10
130 160 5
130 165 2
130 166 2
130 167 9
130 168 1
130 169 5
130 170 4
130 173 2
130 174 8
130 175 7
130 181 7
130 182 5
130 183 10
130 184 7
130 185 7
130 188 4
130 190 3
130 195 5
130 197 1
131 132 9
131 133 4
131 138 1
131 139 3
131 142 10
131 146 4
131 147 3
131 148 1
131 149 2
131 151 3
131 153 1
131 154 2
131 155 10
131 156 10
131 157 10
131 159 10
131 166 1
131 168 1
131 172 9
131 173 7
131 178 10
131 179 3
131 180 6
131 185 7
131 186 6
131 187 3
131 189 6
131 192 8
131 194 1
131 195 3
131 196 8
131 198 7
132 134 4
132 135 7
132 136 8
132 140 6
132 143 1
132 144 1
132 145 6
132 146 9
132 152 2
132 154 7
132 158 4
132 160 6
132 161 4
132 162 10
132 163 10
132 164 10
132 166 5
132 168 1
132 169 5
132 172 2
132 173 7
132 175 1
132 176 10
132 181 1
132 182 2
132 183 1
132 184 8
132 185 3
132 186 10
132 187 8
132 190 4
132 193 1
132 194 8
132 195 4
132 200 8
133 134 3
133 135 10
133 136 1
133 137 7
133 138 1
133 142 9
133 143 4
133 145 10
133 147 4
133 149 2
133 150 4
133 154 2
133 156 3
133 160 1
133 163 4
133 164 9
133 166 2
133 170 1
133 171 5
133 172 4
133 174 1
133 178 5
133 181 7
133 182 6
133 183 6
133 184 8
133 185 3
133 186 9
133 192 3
133 194 5
133 195 10
133 196 8
133 197 8
133 200 1
134 136 8
134 139 5
134 140 3
134 142 9
134 145 8
134 148 4
134 149 5
134 150 3
134 158 3
134 159 6
134 160 10
134 163 2
134 166 5
134 169 8
134 170 3
134 172 9
134 173 6
134 175 1
134 176 1
134 177 4
134 178 4
134 179 7
134 181 6
134 182 5
134 183 6
134 185 4
134 186 7
134 187 5
134 190 1
134 192 4
134 193 6
134 196 2
134 198 10
134 199 8
134 200 5
135 136 3
135 139 5
135 140 10
135 142 3
135 143 4
135 144 7
135 147 4
135 148 1
135 150 7
135 152 8
135 153 9
135 160 6
135 161 9
135 164 2
135 169 10
135 171 4
135 176 9
135 179 2
135 180 10
135 182 6
135 183 1
135 187 7
135 188 9
135 189 2
135 190 2
135 196 10
135 197 7
135 198 2
135 199 10
136 141 4
136 142 2
136 143 8
136 145 9
136 149 6
136 150 9
136 151 4
136 153 3
136 154 4
136 155 5
136 158 5
136 160 8
136 162 4
136 164 3
136 165 3
136 168 9
136 174 2
136 176 6
136 182 7
136 184 8
136 187 2
136 188 9
136 192 7
136 194 2
136 195 2
136 196 8
136 198 2
136 199 8
137 139 5
137 140 10
137 142 8
137 143 4
137 144 2
137 146 3
137 147 5
137 149 8
137 151 8
137 152 3
137 153 6
137 154 9
137 156 5
137 157 1
137 162 9
137 163 9
137 166 2
137 167 5
137 169 3
137 170 1
137 172 8
137 174 7
137 177 1
137 179 8
137 181 9
137 182 4
137 186 5
137 187 9
137 188 9
137 190 10
137 191 9
137 193 7
137 194 3
137 196 8
137 197 3
137 198 6
138 140 4
138 141 1
138 143 10
138 144 7
138 145 2
138 149 5
138 150 2
138 152 9
138 154 2
138 156 8
138 158 2
138 159 6
138 160 4
138 161 3
138 164 10
138 166 10
138 168 3
138 170 1
138 175 8
138 176 7
138 177 10
138 180 4
138 185 10
138 187 1
138 188 10
138 189 3
138 190 6
138 191 7
138 193 3
138 197 6
138 198 4
138 199 2
139 140 5
139 141 1
139 143 3
139 148 1
139 152 7
139 156 5
139 159 5
139 162 4
139 164 9
139 165 10
139 168 6
139 169 7
139 170 5
139 172 9
139 174 8
139 175 2
139 176 5
139 177 7
139 178 9
139 181 4
139 182 1
139 187 7
139 189 2
139 192 8
139 195 8
139 196 4
139 198 5
140 141 1
140 143 6
140 145 10
140 148 1
140 149 9
140 150 4
140 151 8
140 152 4
140 154 10
140 155 5
140 156 2
140 157 10
140 158 9
140 160 4
140 167 7
140 170 9
140 173 3
140 174 6
140 176 7
140 180 7
140 181 3
140 182 1
140 185 3
140 188 6
140 192 1
140 194 4
140 195 10
140 196 4
140 200 6
141 142 10
141 145 6
141 147 7
141 154 7
141 157 7
141 158 3
141 159 1
141 160 1
141 161 8
141 163 4
141 164 5
141 165 1
141 167 3
141 170 6
141 171 6
141 173 6
141 175 4
141 178 10
141 181 4
141 184 4
141 185 6
141 187 3
141 188 3
141 189 1
141 190 6
141 192 6
141 194 3
141 196 3
141 197 1
141 198 3
141 199 8
142 143 6
142 144 5
142 146 2
142 148 5
142 149 3
142 152 7
142 153 2
142 154 10
142 156 5
142 160 4
142 161 10
142 164 2
142 165 6
142 168 6
142 177 7
142 178 9
142 184 7
142 185 1
142 186 7
142 188 3
142 190 5
142 191 7
142 192 2
142 194 2
142 195 6
142 198 5
142 199 1
143 144 10
143 146 7
143 147 1
143 150 10
143 153 1
143 154 10
143 156 9
143 157 5
143 158 6
143 163 7
143 165 2
143 168 3
143 170 5
143 172 1
143 173 8
143 177 3
143 178 6
143 179 9
143 181 3
143 184 1
143 186 3
143 189 10
143 191 8
143 196 9
143 198 3
143 199 10
143 200 4
144 145 8
144 146 1
144 147 5
144 148 7
144 150 3
144 152 3
144 154 4
144 156 8
144 157 1
144 158 1
144 159 3
144 160 6
144 161 2
144 162 10
144 164 5
144 165 4
144 167 10
144 168 2
144 169 10
144 171 6
144 173 4
144 174 4
144 175 1
144 176 4
144 177 4
144 179 2
144 185 1
144 186 5
144 187 8
144 191 7
144 192 9
144 197 3
145 152 8
145 153 8
145 154 4
145 156 10
145 160 2
145 163 10
145 164 3
145 165 4
145 169 7
145 171 2
145 172 9
145 174 6
145 177 8
145 179 6
145 182 5
145 185 6
145 186 8
145 188 4
145 191 3
145 192 10
145 195 6
145 197 6
145 200 5
146 147 7
146 148 8
146 150 3
146 152 5
146 155 7
146 163 1
146 164 6
146 166 4
146 172 8
146 173 7
146 175 7
146 177 3
146 178 2
146 180 4
146 181 3
146 184 5
146 185 9
146 186 10
146 187 10
146 190 1
146 191 2
146 193 7
146 194 1
146 196 10
146 198 8
146 200 4
147 148 2
147 154 3
147 155 10
147 156 10
147 159 2
147 161 2
147 162 1
147 164 5
147 165 3
147 170 7
147 172 4
147 173 7
147 174 6
147 176 8
147 178 2
147 180 10
147 181 9
147 183 8
147 184 8
147 185 6
147 189 2
147 195 5
147 198 9
148 155 1
148 156 2
148 158 6
148 161 10
148 164 7
148 165 6
148 166 2
148 168 3
148 169 1
148 171 5
148 175 10
148 176 7
148 177 6
148 178 4
148 179 1
148 180 2
148 187 3
148 188 3
148 191 4
148 193 9
148 195 10
148 198 9
148 199 1
148 200 1
149 150 1
149 156 7
149 159 7
149 161 10
149 163 2
149 164 9
149 165 4
149 166 3
149 167 5
149 169 4
149 171 6
149 174 7
149 175 10
149 180 1
149 183 8
149 184 5
149 188 5
149 190 7
149 191 9
149 192 9
149 195 7
149 197 4
149 198 8
149 199 2
150 154 6
150 156 5
150 160 10
150 165 3
150 167 7
150 169 2
150 170 9
150 172 3
150 177 10
150 178 3
150 180 7
150 181 5
150 184 10
150 185 9
150 187 6
150 188 9
150 189 2
150 190 5
150 192 2
150 194 5
150 195 10
150 196 8
150 200 9
151 157 8
151 158 1
151 159 1
151 162 10
151 164 1
151 165 3
151 171 6
151 172 4
151 173 6
151 175 8
151 178 8
151 180 5
151 183 4
151 187 9
151 193 4
151 194 2
151 195 7
151 196 9
151 200 10
152 157 9
152 159 10
152 160 6
152 161 3
152 162 4
152 166 5
152 168 9
152 169 2
152 174 3
152 175 5
152 176 10
152 178 4
152 179 8
152 180 1
152 181 7
152 182 6
152 184 8
152 187 2
152 189 10
152 190 2
152 192 2
152 196 8
152 198 7
152 199 1
152 200 8
153 154 8
153 155 5
153 156 1
153 159 9
153 161 3
153 167 10
153 168 10
153 169 1
153 174 10
153 176 1
153 177 5
153 179 2
153 182 4
153 183 1
153 185 8
153 187 1
153 188 8
153 189 2
153 190 5
153 192 10
153 194 3
153 196 5
153 198 4
154 155 5
154 156 8
154 158 10
154 161 2
154 162 2
154 164 5
154 165 5
154 167 3
154 170 4
154 171 1
154 173 8
154 174 6
154 176 10
154 177 2
154 180 4
154 182 6
154 183 6
154 189 4
154 190 6
154 191 9
154 192 9
154 194 6
154 195 5
154 197 8
154 199 4
155 157 7
155 158 5
155 159 7
155 163 7
155 164 5
155 165 2
155 166 4
155 167 5
155 171 9
155 172 8
155 174 2
155 177 2
155 180 1
155 182 9
155 183 8
155 184 9
155 186 1
155 191 1
155 193 6
155 194 6
155 195 5
155 197 8
156 164 7
156 170 7
156 171 6
156 173 5
156 178 6
156 179 4
156 181 6
156 182 10
156 184 4
156 186 7
156 188 1
156 191 7
156 192 4
156 194 4
156 195 9
156 198 5
157 159 8
157 160 4
157 161 9
157 164 6
157 165 5
157 166 9
157 170 5
157 171 2
157 172 9
157 173 8
157 174 5
157 177 7
157 179 10
157 180 5
157 182 2
157 185 7
157 186 1
157 187 9
157 188 5
157 189 1
157 190 3
157 193 8
157 195 9
157 199 2
158 159 10
158 160 8
158 163 5
158 168 2
158 170 4
158 171 1
158 175 1
158 177 8
158 178 6
158 180 9
158 182 10
158 185 7
158 188 9
158 189 6
158 191 9
158 193 7
158 195 6
158 197 3
158 198 4
158 200 4
159 162 8
159 163 4
159 165 9
159 168 5
159 169 1
159 170 2
159 171 8
159 173 5
159 174 6
159 175 2
159 177 1
159 178 10
159 179 6
159 181 7
159 182 8
159 183 7
159 184 4
159 185 9
159 186 5
159 187 3
159 191 9
159 193 7
159 196 4
159 197 5
159 200 9
160 161 6
160 164 1
160 165 2
160 166 9
160 177 3
160 179 5
160 180 3
160 182 1
160 185 2
160 186 10
160 188 7
160 189 3
160 192 10
161 162 9
161 163 2
161 165 3
161 168 7
161 172 3
161 175 4
161 177 2
161 181 6
161 185 3
161 187 7
161 188 4
161 191 3
161 192 9
161 195 4
161 196 10
161 198 1
161 199 4
162 166 6
162 167 10
162 169 8
162 172 1
162 174 8
162 175 2
162 176 8
162 178 10
162 179 8
162 180 10
162 181 1
162 183 3
162 184 8
162 191 8
162 193 6
162 194 3
162 196 10
162 197 6
162 198 10
163 164 9
163 165 2
163 167 7
163 170 8
163 172 10
163 173 1
163 175 7
163 176 10
163 178 4
163 179 3
163 180 2
163 181 1
163 182 10
163 183 1
163 184 1
163 187 4
163 189 9
163 190 5
163 191 10
163 192 4
163 193 6
163 194 9
163 195 3
163 197 10
163 199 1
164 165 10
164 166 2
164 167 4
164 171 6
164 172 8
164 174 9
164 175 10
164 178 2
164 180 8
164 181 6
164 183 3
164 185 2
164 188 7
164 190 8
164 193 8
164 196 1
164 197 6
164 199 7
164 200 3
165 166 9
165 168 10
165 169 3
165 172 10
165 173 7
165 174 1
165 175 7
165 178 9
165 179 9
165 180 3
165 181 9
165 184 9
165 185 6
165 187 4
165 190 10
165 191 6
165 195 3
165 197 8
165 198 7
165 199 10
166 167 8
166 168 3
166 173 2
166 174 6
166 175 2
166 177 6
166 183 1
166 185 5
166 186 9
166 187 8
166 190 8
166 193 1
166 195 6
166 196 8
166 197 7
166 199 10
167 168 2
167 171 10
167 173 2
167 174 4
167 175 8
167 176 7
167 181 1
167 185 6
167 187 5
167 189 3
167 190 7
167 191 3
167 194 10
167 196 4
167 197 6
167 200 7
168 169 8
168 172 5
168 175 7
168 176 7
168 178 2
168 179 1
168 181 8
168 185 10
168 187 3
168 188 5
168 192 3
168 193 5
168 194 7
168 196 6
168 200 7
169 171 3
169 172 1
169 176 1
169 177 2
169 179 9
169 183 10
169 184 10
169 185 6
169 186 5
169 187 5
169 189 7
169 190 4
169 193 1
169 194 6
169 197 9
169 198 6
169 199 9
169 200 10
170 172 6
170 173 9
170 177 1
170 178 1
170 179 5
170 180 5
170 182 3
170 183 9
170 187 2
170 189 2
170 190 10
170 193 8
170 195 8
170 200 4
171 172 4
171 176 2
171 179 10
171 180 2
171 181 9
171 182 5
171 184 9
171 185 2
171 186 8
171 187 1
171 188 5
171 189 8
171 192 6
171 193 8
171 195 7
171 196 7
172 173 1
172 174 9
172 175 5
172 176 8
172 178 9
172 181 2
172 185 5
172 187 5
172 189 9
172 190 1
172 191 7
172 192 9
172 193 3
172 194 1
172 196 5
172 198 2
173 174 6
173 175 10
173 179 3
173 184 7
173 189 3
173 190 1
173 198 10
173 199 1
174 175 3
174 183 7
174 186 9
174 187 2
174 191 7
174 193 2
174 194 4
174 195 4
174 197 10
174 198 7
174 200 9
175 176 7
175 177 9
175 179 8
175 180 10
175 187 5
175 188 5
175 194 3
175 197 6
176 178 10
176 180 2
176 185 1
176 187 9
176 188 4
176 189 2
176 192 5
176 194 4
176 195 8
176 197 2
176 198 1
176 200 2
177 179 5
177 180 5
177 181 10
177 183 7
177 185 5
177 186 1
177 188 4
177 190 8
177 192 8
177 194 4
177 195 10
177 196 4
177 197 7
177 198 10
177 199 6
177 200 4
178 180 7
178 185 5
178 186 6
178 189 6
178 191 10
178 193 8
178 195 8
178 197 10
178 198 10
179 180 6
179 181 5
179 183 8
179 184 8
179 189 3
179 190 8
179 195 3
179 200 5
180 182 2
180 184 3
180 185 4
180 188 10
180 190 10
180 191 3
180 193 4
180 196 7
180 197 5
180 200 8
181 183 6
181 189 2
181 190 5
181 192 4
181 193 1
182 184 3
182 186 5
182 187 10
182 189 10
182 190 10
182 192 10
182 193 6
182 194 7
182 199 10
183 187 2
183 189 8
183 191 5
183 192 7
183 194 4
183 195 4
183 197 9
183 199 10
183 200 7
184 188 3
184 189 7
184 190 3
184 192 6
184 193 8
184 194 6
184 195 2
184 197 9
184 198 10
184 199 9
184 200 5
185 186 4
185 187 5
185 191 2
185 192 7
185 193 4
185 194 4
185 196 4
185 197 3
186 191 9
186 194 3
186 199 1
187 190 2
187 192 8
187 196 8
187 197 1
187 198 10
187 200 10
188 189 8
188 190 6
188 191 6
188 193 5
188 194 9
188 196 4
188 197 2
188 198 10
188 200 7
189 193 6
189 194 7
189 200 8
190 193 3
190 196 10
190 197 10
190 199 6
191 192 6
191 194 1
191 196 7
191 197 1
191 200 5
192 193 4
192 194 2
192 197 1
192 200 2
193 194 2
193 195 9
193 198 9
193 199 7
193 200 7
194 195 3
194 197 5
194 199 4
194 200 3
195 197 9
195 199 1
195 200 7
196 199 5
197 198 9
197 200 2
