200 1990 733.333
10
2
10
4
1
7
2
8
4
5
9
7
2
5
5
4
3
10
2
10
3
7
6
6
5
6
5
9
3
4
7
10
7
2
5
1
1
8
8
2
10
8
5
10
8
5
8
3
1
5
7
7
5
7
4
5
6
8
7
2
6
7
6
10
6
9
7
10
5
9
3
3
1
10
2
7
3
2
4
5
7
9
5
7
7
10
10
2
8
7
7
3
2
9
3
4
8
5
6
4
9
1
4
3
10
4
2
1
4
1
6
1
3
3
7
7
5
9
6
6
4
7
1
9
10
4
10
4
6
4
8
5
2
2
1
5
1
9
1
1
9
7
3
6
7
8
2
10
4
3
10
4
5
2
5
5
6
8
1
6
4
5
3
3
5
2
8
6
5
4
10
9
7
8
1
5
4
8
6
10
7
7
10
10
6
1
1
4
8
7
4
8
7
7
3
7
6
10
1
1
1 5 4
1 6 1
1 7 1
1 21 2
1 36 2
1 39 2
1 52 8
1 67 5
1 69 10
1 84 2
1 86 7
1 103 3
1 106 9
1 120 2
1 122 7
1 131 1
1 133 4
1 139 9
1 169 7
1 196 7
2 17 6
2 26 3
2 42 10
2 53 6
2 64 1
2 71 2
2 73 3
2 76 10
2 87 1
2 88 6
2 90 7
2 101 2
2 109 7
2 152 2
2 160 7
2 179 7
2 185 2
2 191 6
2 197 4
3 16 10
3 18 3
3 20 10
3 22 6
3 32 3
3 43 6
3 47 4
3 50 7
3 61 7
3 68 7
3 79 9
3 86 8
3 89 4
3 152 1
3 153 3
3 191 6
3 198 7
4 13 8
4 26 3
4 32 2
4 52 10
4 63 1
4 68 1
4 75 8
4 85 6
4 91 6
4 92 2
4 95 5
4 97 1
4 112 9
4 115 5
4 122 2
4 141 2
4 177 6
4 194 4
5 8 7
5 16 4
5 25 2
5 31 6
5 44 4
5 47 7
5 59 10
5 94 9
5 100 10
5 115 6
5 126 1
5 129 10
5 138 7
5 142 5
5 151 7
5 154 6
5 170 8
6 17 7
6 26 10
6 39 5
6 56 9
6 65 7
6 66 10
6 74 7
6 75 2
6 90 7
6 105 3
6 114 6
6 115 7
6 128 10
6 136 3
6 140 6
6 142 10
6 144 7
6 146 9
6 148 6
6 177 9
6 186 2
7 36 7
7 41 7
7 55 8
7 57 3
7 63 2
7 78 10
7 80 6
7 81 5
7 88 5
7 93 7
7 103 2
7 109 10
7 138 10
7 144 10
7 148 5
7 173 9
7 185 10
7 191 8
8 15 8
8 36 6
8 37 3
8 56 4
8 72 1
8 83 7
8 98 8
8 110 3
8 116 10
8 132 1
8 145 7
8 167 7
8 175 8
8 179 10
8 188 3
8 192 6
8 195 8
9 10 4
9 13 4
9 18 2
9 20 6
9 31 3
9 49 6
9 56 3
9 59 4
9 61 10
9 78 9
9 91 6
9 116 4
9 118 6
9 129 10
9 130 10
9 144 8
9 150 2
9 179 7
9 181 2
9 195 8
9 199 10
9 200 8
10 16 8
10 19 9
10 59 10
10 73 8
10 91 8
10 111 2
10 113 10
10 130 5
10 138 10
10 149 8
10 156 4
10 189 2
10 197 4
11 25 8
11 48 2
11 74 10
11 83 9
11 95 7
11 98 1
11 99 3
11 137 4
11 139 10
11 151 9
11 161 7
11 182 1
11 200 6
12 13 3
12 31 6
12 37 5
12 38 1
12 52 4
12 56 2
12 72 8
12 74 6
12 80 6
12 101 1
12 109 3
12 121 5
12 139 9
12 142 2
12 144 1
12 167 8
12 198 4
13 17 2
13 18 6
13 20 3
13 22 3
13 51 9
13 52 10
13 56 3
13 58 3
13 65 3
13 67 9
13 77 3
13 79 1
13 101 4
13 112 9
13 114 6
13 182 8
13 190 4
14 26 10
14 35 2
14 49 9
14 64 8
14 103 4
14 130 10
14 134 1
14 145 7
14 152 7
14 155 5
14 161 3
14 164 8
14 165 9
14 181 8
15 16 8
15 31 1
15 34 10
15 37 2
15 45 5
15 54 2
15 68 9
15 77 6
15 88 7
15 120 2
15 122 8
15 139 7
15 142 3
15 157 4
15 167 5
15 168 4
15 176 8
15 179 5
15 190 2
15 200 5
16 54 6
16 90 3
16 112 9
16 114 4
16 115 5
16 118 8
16 120 9
16 121 6
16 122 6
16 133 4
16 151 8
16 156 9
16 159 10
16 164 9
16 185 5
17 29 2
17 32 6
17 36 4
17 39 1
17 54 7
17 60 10
17 114 6
17 146 2
17 175 5
17 177 9
17 191 10
17 196 3
18 23 7
18 28 3
18 44 7
18 46 2
18 57 6
18 60 1
18 65 1
18 66 4
18 73 10
18 76 10
18 95 5
18 108 5
18 115 1
18 120 1
18 123 8
18 128 8
18 139 10
18 146 3
18 161 4
18 167 3
18 172 1
18 177 1
18 184 4
19 20 6
19 22 3
19 35 8
19 41 10
19 55 7
19 75 6
19 78 1
19 107 3
19 116 10
19 131 9
19 135 2
19 143 6
19 148 9
19 158 2
19 166 4
19 179 2
19 184 4
19 198 4
20 57 5
20 59 1
20 69 3
20 100 7
20 106 9
20 111 10
20 118 2
20 132 4
20 134 6
20 147 2
20 149 5
20 151 3
20 158 10
20 169 4
20 170 2
20 179 8
20 189 5
21 45 6
21 69 7
21 70 7
21 76 5
21 105 5
21 121 8
21 122 3
21 139 3
21 145 8
21 152 6
21 153 3
21 156 1
21 178 10
21 182 4
21 185 2
22 27 9
22 28 8
22 31 7
22 43 8
22 49 5
22 56 10
22 74 4
22 92 8
22 101 3
22 103 10
22 118 8
22 156 3
22 159 6
22 162 10
22 163 1
22 167 10
22 172 2
22 181 2
22 186 7
22 188 3
22 197 7
23 25 2
23 30 6
23 73 9
23 90 5
23 102 1
23 129 3
23 134 7
23 155 1
23 172 5
23 194 9
23 198 5
24 31 10
24 42 7
24 52 3
24 60 3
24 61 7
24 79 10
24 83 4
24 84 3
24 87 2
24 111 5
24 119 10
24 147 4
24 154 10
24 155 8
24 175 7
24 185 6
25 31 5
25 47 10
25 54 6
25 81 10
25 101 3
25 140 7
25 144 3
25 171 10
25 181 1
25 199 9
26 28 9
26 33 10
26 42 1
26 46 4
26 77 8
26 79 3
26 87 2
26 88 1
26 123 9
26 127 10
26 130 3
26 143 2
26 154 4
26 158 10
26 193 3
26 195 4
27 37 10
27 42 2
27 50 1
27 52 1
27 63 10
27 67 4
27 73 9
27 75 4
27 85 7
27 94 1
27 113 4
27 120 9
27 146 9
27 150 6
27 151 7
27 156 4
27 163 9
27 177 7
27 192 10
27 198 2
28 32 2
28 43 8
28 49 6
28 50 4
28 84 4
28 87 7
28 88 2
28 101 8
28 112 4
28 123 1
28 137 5
28 156 4
28 170 4
28 179 1
28 188 1
28 193 2
28 195 7
29 36 10
29 40 8
29 41 7
29 52 1
29 54 5
29 59 3
29 66 10
29 70 3
29 73 9
29 76 6
29 83 8
29 96 10
29 99 7
29 104 9
29 112 6
29 118 3
29 144 7
29 154 8
29 162 10
29 167 10
29 177 1
29 188 3
30 46 2
30 64 10
30 78 10
30 88 9
30 100 4
30 111 6
30 135 9
30 138 7
30 151 8
30 152 7
30 184 10
30 192 5
31 48 9
31 68 3
31 71 5
31 75 2
31 77 2
31 87 6
31 94 6
31 95 6
31 97 1
31 99 3
31 108 5
31 121 3
31 128 2
31 150 7
31 153 6
31 159 9
31 166 10
32 35 10
32 36 10
32 47 5
32 50 7
32 68 6
32 69 5
32 73 7
32 86 9
32 87 9
32 110 10
32 134 9
32 144 6
32 158 1
32 164 8
32 177 8
32 191 9
32 194 9
32 195 4
33 41 9
33 72 9
33 79 5
33 82 2
33 83 10
33 86 3
33 126 2
33 131 2
33 139 5
33 141 9
33 154 8
33 158 8
33 164 5
33 166 5
33 191 1
33 194 8
34 47 10
34 64 3
34 78 9
34 82 10
34 117 3
34 120 10
34 124 5
34 131 3
34 135 6
34 139 3
34 141 9
34 147 6
34 165 4
34 177 3
34 182 6
34 183 9
34 185 8
34 188 8
35 52 3
35 65 5
35 81 9
35 83 1
35 87 10
35 100 8
35 109 1
35 110 8
35 111 5
35 113 10
35 120 6
35 128 2
35 137 4
35 141 7
35 148 9
35 149 9
35 152 9
35 161 2
35 182 7
35 189 8
35 194 2
35 195 5
36 38 1
36 42 1
36 49 5
36 61 8
36 64 10
36 84 8
36 86 2
36 91 8
36 108 8
36 111 2
36 135 7
36 140 10
36 144 1
36 147 6
36 149 3
36 154 10
36 160 5
36 165 3
36 188 3
36 199 4
37 38 1
37 44 10
37 52 10
37 60 1
37 84 6
37 95 7
37 120 10
37 123 4
37 125 10
37 145 7
37 147 3
37 150 8
37 154 7
37 157 5
37 175 5
37 178 10
38 45 9
38 47 8
38 52 8
38 54 7
38 56 9
38 66 2
38 70 10
38 127 7
38 141 7
38 159 1
38 161 5
38 171 2
38 180 1
38 186 10
38 196 8
39 42 10
39 50 3
39 51 8
39 60 2
39 79 3
39 82 5
39 101 6
39 113 9
39 125 10
39 132 10
39 133 6
39 135 8
39 137 10
39 155 9
39 165 9
39 190 7
40 42 3
40 51 6
40 61 9
40 66 1
40 114 6
40 115 6
40 116 1
40 134 5
40 137 8
40 145 4
40 165 2
40 172 2
40 180 6
40 181 2
40 192 1
40 200 6
41 52 8
41 79 7
41 83 3
41 87 3
41 88 3
41 91 7
41 107 10
41 114 1
41 140 8
41 143 10
41 147 9
41 194 3
41 200 7
42 62 10
42 78 10
42 83 1
42 86 9
42 91 9
42 95 3
42 100 5
42 101 3
42 106 2
42 107 1
42 112 3
42 120 3
42 130 6
42 133 6
42 139 9
42 154 7
42 175 10
42 177 4
42 191 1
42 198 10
43 50 5
43 58 8
43 63 3
43 74 7
43 76 9
43 81 4
43 92 8
43 105 2
43 107 7
43 122 1
43 123 6
43 124 5
43 126 5
43 133 5
43 153 4
43 158 3
43 179 10
43 181 9
43 196 1
43 197 9
44 48 3
44 50 5
44 51 3
44 54 8
44 60 8
44 99 8
44 142 10
44 159 2
44 161 2
44 163 6
44 170 8
44 173 6
44 182 8
44 193 10
45 52 9
45 70 7
45 82 10
45 84 4
45 85 3
45 97 4
45 103 3
45 105 3
45 112 3
45 127 7
45 128 2
45 141 6
45 142 3
45 153 7
45 155 8
45 158 10
45 168 10
45 173 3
45 194 1
45 198 5
46 48 3
46 50 5
46 63 2
46 71 8
46 74 9
46 76 3
46 82 3
46 85 1
46 96 7
46 114 8
46 115 4
46 116 3
46 134 3
46 142 1
46 152 3
46 157 6
46 158 1
46 172 2
46 177 1
46 180 3
46 191 1
47 74 3
47 80 5
47 81 4
47 88 2
47 92 9
47 108 2
47 111 8
47 122 6
47 125 4
47 143 4
47 145 6
47 152 7
47 154 6
47 160 6
47 180 9
47 191 9
48 53 3
48 63 5
48 67 1
48 72 9
48 74 3
48 77 7
48 85 2
48 92 1
48 120 3
48 122 5
48 133 6
48 135 8
48 149 4
48 157 4
48 189 9
48 190 9
48 197 3
49 53 6
49 58 9
49 65 4
49 70 10
49 89 8
49 104 9
49 110 3
49 118 9
49 125 9
49 130 9
49 141 3
49 146 6
49 151 7
49 156 5
49 173 1
49 182 8
49 187 5
49 200 6
50 88 4
50 93 3
50 103 7
50 105 10
50 122 2
50 133 2
50 135 10
50 137 7
50 141 8
50 150 7
50 156 2
50 184 7
50 187 5
50 188 5
50 193 9
50 194 6
51 53 3
51 68 5
51 77 8
51 86 1
51 101 6
51 119 1
51 146 5
51 153 5
51 159 6
51 173 2
51 184 6
51 196 10
51 197 1
52 59 1
52 75 2
52 76 8
52 83 9
52 98 9
52 101 1
52 107 8
52 131 9
52 135 10
52 139 5
52 161 3
52 170 8
52 175 3
52 181 4
53 55 2
53 58 4
53 68 5
53 80 2
53 86 1
53 94 5
53 97 5
53 106 4
53 126 2
53 147 1
53 154 2
53 156 8
53 169 8
53 177 1
53 184 4
53 190 3
54 78 7
54 89 2
54 94 8
54 98 4
54 100 5
54 104 1
54 144 5
54 149 10
54 154 7
54 167 4
54 169 7
54 174 9
54 198 7
55 58 1
55 70 4
55 85 4
55 86 7
55 90 1
55 94 7
55 98 1
55 109 2
55 132 6
55 150 5
55 153 3
56 57 9
56 82 4
56 83 4
56 91 1
56 106 1
56 118 6
56 125 2
56 137 9
56 141 6
56 166 4
56 169 8
56 178 6
56 195 5
57 63 2
57 64 5
57 85 4
57 89 7
57 99 7
57 107 8
57 118 9
57 125 10
57 153 8
57 154 9
57 164 1
57 173 9
58 70 1
58 101 7
58 117 6
58 129 1
58 187 6
59 61 5
59 77 10
59 78 4
59 87 4
59 89 8
59 91 6
59 100 1
59 125 5
59 142 2
59 164 6
59 167 5
59 174 7
59 181 3
59 182 4
59 188 5
59 189 10
59 194 7
60 71 4
60 77 1
60 89 5
60 112 2
60 121 1
60 131 4
60 138 7
60 142 4
60 154 1
60 159 7
60 163 1
60 172 5
60 182 4
61 72 6
61 74 7
61 82 2
61 83 1
61 90 8
61 101 4
61 114 4
61 116 2
61 120 2
61 134 4
61 141 2
61 146 3
61 164 8
61 172 6
61 177 4
61 179 2
61 183 3
61 190 7
61 192 2
61 200 8
62 67 7
62 75 3
62 82 5
62 89 9
62 91 10
62 102 7
62 110 3
62 115 8
62 118 10
62 131 9
62 132 2
62 138 6
62 141 4
62 148 9
62 169 2
62 170 3
62 173 10
62 189 3
62 196 1
63 86 3
63 90 3
63 92 6
63 93 2
63 99 6
63 100 10
63 113 5
63 127 10
63 146 6
63 147 5
63 148 7
63 159 5
63 168 3
63 179 1
63 192 8
64 66 5
64 76 10
64 80 7
64 82 1
64 86 5
64 88 10
64 92 1
64 110 1
64 116 8
64 119 3
64 123 8
64 166 7
64 190 7
64 194 3
64 195 7
64 198 4
64 200 5
65 73 8
65 79 2
65 90 7
65 107 5
65 111 2
65 114 5
65 121 10
65 122 7
65 127 3
65 129 2
65 131 2
65 136 8
65 139 3
65 141 4
65 145 5
65 157 5
65 163 2
65 167 5
65 171 2
65 177 10
66 79 3
66 101 4
66 108 10
66 125 6
66 128 9
66 132 3
66 138 9
66 161 5
66 163 4
66 177 7
66 181 5
66 199 9
67 84 6
67 109 1
67 113 7
67 133 7
67 146 9
67 147 2
67 149 1
67 153 3
67 156 6
67 161 4
67 187 2
67 189 6
68 83 1
68 93 1
68 97 8
68 104 7
68 108 10
68 109 6
68 128 6
68 146 7
68 148 3
68 161 3
68 179 4
68 191 5
68 195 2
69 71 9
69 88 8
69 93 2
69 101 5
69 110 6
69 113 9
69 114 8
69 115 2
69 117 2
69 120 8
69 133 5
69 154 8
69 163 6
69 164 5
69 167 4
69 183 10
69 186 1
70 87 9
70 93 4
70 98 1
70 107 7
70 128 3
70 129 2
70 133 4
70 138 1
70 161 6
70 181 10
70 189 9
71 88 9
71 100 4
71 109 8
71 110 2
71 112 10
71 125 4
71 130 10
71 133 5
71 149 10
71 168 6
71 175 1
71 178 6
71 186 9
71 193 2
71 196 4
72 80 1
72 83 7
72 93 3
72 96 2
72 98 2
72 103 10
72 107 3
72 117 4
72 151 1
72 199 3
73 77 4
73 78 3
73 82 8
73 83 6
73 87 5
73 102 10
73 126 2
73 137 10
73 139 5
73 182 10
73 185 10
73 187 7
73 197 4
74 80 3
74 85 3
74 103 8
74 114 10
74 119 7
74 122 6
74 125 6
74 127 4
74 130 10
74 139 1
74 144 2
74 146 1
74 158 5
74 186 4
74 188 4
74 192 2
74 195 1
74 200 8
75 95 2
75 100 10
75 101 1
75 105 3
75 118 7
75 119 4
75 125 2
75 129 8
75 132 7
75 133 3
75 134 2
75 137 6
75 148 8
75 165 2
75 174 7
75 175 4
75 192 7
76 79 2
76 104 7
76 160 7
76 162 7
76 168 5
76 180 6
76 191 2
77 81 3
77 83 10
77 97 6
77 98 9
77 102 2
77 108 8
77 110 6
77 125 5
77 126 8
77 135 7
77 144 9
77 151 2
77 181 7
77 191 2
77 193 3
77 197 2
78 83 5
78 91 10
78 99 4
78 101 1
78 110 6
78 111 9
78 118 4
78 137 1
78 138 1
78 155 8
78 158 2
78 162 5
78 163 1
78 167 10
78 175 5
78 176 6
78 196 4
79 101 4
79 109 5
79 122 2
79 123 4
79 127 3
79 134 7
79 152 7
79 157 7
79 162 5
79 170 4
79 175 1
79 185 4
80 84 8
80 95 2
80 97 3
80 107 1
80 119 4
80 125 10
80 128 3
80 142 3
80 180 7
80 184 4
80 187 5
80 195 2
80 200 6
81 93 1
81 133 5
81 143 5
81 165 6
81 195 10
82 97 10
82 100 2
82 127 7
82 129 7
82 134 9
82 146 3
82 150 3
82 153 5
82 164 7
82 165 7
82 179 7
82 186 10
82 193 7
82 195 2
83 98 7
83 106 8
83 128 5
83 134 1
83 136 5
83 144 8
83 155 10
83 158 4
83 168 2
83 193 4
84 100 10
84 113 8
84 118 7
84 136 2
84 151 7
85 113 3
85 115 3
85 116 1
85 127 3
85 139 2
85 146 4
85 157 9
85 173 7
85 180 4
86 93 3
86 97 9
86 118 2
86 121 2
86 124 8
86 158 9
86 170 1
86 191 10
86 195 3
86 197 8
86 200 1
87 88 10
87 95 1
87 96 2
87 103 2
87 110 7
87 116 4
87 117 4
87 123 4
87 124 10
87 130 10
87 134 5
87 135 9
87 147 2
87 156 1
87 163 5
87 166 5
87 170 9
87 174 10
87 183 7
87 184 3
87 185 9
87 194 2
88 98 6
88 103 3
88 105 2
88 133 5
88 135 8
88 138 4
88 144 8
88 147 5
88 148 5
88 166 1
88 183 9
88 188 8
88 198 3
89 96 7
89 106 6
89 111 6
89 122 7
89 126 3
89 138 6
89 139 3
89 141 3
89 153 3
89 155 2
89 168 7
89 195 5
89 200 1
90 97 4
90 123 9
90 136 6
90 158 7
90 164 8
90 182 5
90 185 7
90 190 10
91 116 4
91 141 9
91 160 6
92 105 9
92 107 6
92 108 1
92 112 5
92 122 1
92 129 5
92 130 8
92 147 2
92 155 4
92 161 1
92 167 7
92 169 1
92 179 2
92 180 3
92 187 8
92 189 5
93 103 4
93 114 9
93 133 5
93 144 7
93 158 10
93 160 9
93 163 1
93 172 9
93 179 8
94 115 2
94 122 6
94 125 8
94 137 7
94 138 5
94 156 8
94 165 9
94 195 3
95 108 1
95 111 10
95 125 9
95 129 1
95 143 2
95 154 4
95 160 7
95 166 4
95 173 10
95 177 7
95 180 1
95 183 4
95 195 8
95 198 7
96 113 3
96 115 3
96 155 2
96 160 3
96 167 10
96 172 8
96 187 3
96 196 8
97 130 2
97 167 3
97 168 4
97 170 1
97 176 1
97 179 3
98 120 1
98 121 6
98 123 1
98 126 2
98 141 6
98 148 9
98 158 7
98 163 6
98 165 4
98 170 9
98 173 3
98 179 4
98 182 8
99 110 3
99 114 2
99 117 7
99 119 8
99 126 6
99 128 3
99 136 9
99 141 10
99 146 2
99 150 1
99 165 8
99 167 7
99 172 1
100 136 10
100 151 9
100 161 2
100 170 8
100 171 9
100 194 4
101 102 6
101 122 1
101 125 7
101 134 8
101 138 3
101 140 7
101 142 1
101 144 8
101 170 10
101 171 2
101 185 7
101 199 3
102 106 9
102 117 5
102 122 3
102 139 6
102 145 8
102 147 9
102 150 5
102 162 1
102 163 9
102 183 6
102 184 2
102 188 10
102 195 2
103 122 5
103 125 3
103 130 9
103 133 2
103 140 7
103 144 1
103 147 1
103 148 7
103 157 9
103 160 4
103 164 6
103 165 5
103 174 1
103 178 8
103 181 6
103 188 6
104 106 10
104 107 6
104 116 8
104 119 10
104 122 2
104 133 2
104 136 1
104 139 6
104 167 4
104 176 8
105 111 7
105 122 2
105 124 2
105 132 8
105 139 3
105 150 9
105 181 6
106 108 6
106 129 1
106 130 2
106 141 2
106 147 9
106 160 5
106 162 9
106 173 7
106 181 8
106 182 1
107 121 10
107 124 10
107 125 2
107 127 4
107 132 6
107 148 1
107 152 3
107 161 4
107 164 4
107 184 5
108 113 7
108 125 9
108 136 5
108 147 2
108 154 9
108 161 7
108 162 8
108 163 10
108 179 3
108 185 3
108 186 5
108 187 3
108 194 8
108 195 1
109 115 6
109 120 10
109 145 7
109 146 2
109 164 1
109 169 10
109 178 2
109 188 4
110 123 10
110 136 8
110 141 1
110 175 8
110 188 4
110 199 10
111 114 3
111 115 4
111 136 7
111 151 1
111 155 3
111 191 4
112 122 7
112 124 8
112 125 2
112 143 10
112 157 6
112 164 9
112 170 6
113 114 5
113 150 3
113 155 6
113 184 1
113 199 3
114 123 5
114 132 6
114 137 6
114 139 4
114 145 2
114 166 1
114 181 9
114 195 7
115 121 7
115 131 9
115 137 4
115 160 4
115 174 10
115 183 1
116 120 10
116 140 8
116 142 1
116 143 1
116 145 2
116 147 7
116 153 7
116 160 5
116 185 2
116 190 7
116 193 5
117 146 6
117 154 4
117 159 1
117 167 8
117 175 6
117 176 8
117 188 6
117 198 5
118 139 8
118 148 1
118 156 3
118 170 9
118 177 10
118 178 3
119 136 4
119 142 9
119 153 4
119 158 10
119 160 3
119 165 8
119 168 9
119 185 2
119 188 3
120 121 5
120 146 3
120 150 2
120 153 3
120 169 9
120 175 2
120 181 5
120 183 10
120 184 4
120 191 9
120 196 4
121 159 8
121 167 9
121 171 6
122 126 10
122 134 3
122 143 8
122 146 7
122 158 2
122 173 2
122 176 9
122 181 3
122 190 10
122 197 1
123 141 4
123 156 2
123 164 9
123 166 9
123 177 5
124 125 5
124 126 10
124 130 1
124 132 6
124 140 3
124 141 8
124 147 5
124 155 4
124 172 8
124 180 4
124 184 4
124 185 7
124 189 5
124 194 2
125 133 8
125 163 3
125 165 5
125 169 4
125 171 4
125 173 8
125 184 4
125 199 10
126 135 4
126 136 2
126 153 8
126 188 7
126 194 6
126 198 5
127 129 10
127 135 6
127 141 8
127 145 1
127 149 4
127 162 4
127 169 8
128 133 5
128 139 3
128 141 3
128 150 4
128 151 9
128 165 3
128 187 3
128 191 7
129 138 5
129 148 4
129 157 3
129 162 1
129 173 7
129 198 8
129 199 8
130 131 10
130 132 1
130 151 3
130 154 10
130 155 10
130 167 4
131 150 4
131 157 9
131 165 4
131 172 8
131 198 1
132 144 3
132 149 3
132 168 5
132 170 8
132 181 2
132 200 5
133 142 7
133 155 1
133 165 2
133 173 6
133 179 4
133 182 8
133 196 6
133 198 10
134 135 3
134 142 6
134 152 1
134 156 5
134 168 9
134 189 8
134 191 3
135 139 9
135 141 3
135 166 8
135 175 4
135 181 10
136 139 3
136 141 1
136 186 5
136 192 1
136 199 8
137 152 8
137 162 9
137 167 5
137 174 8
137 179 5
137 184 6
137 186 7
137 188 9
137 195 3
138 147 1
138 148 1
138 152 6
138 156 7
138 159 10
138 162 1
138 166 3
138 167 9
138 183 2
138 185 7
138 189 5
138 193 10
138 194 7
139 165 5
139 169 10
139 171 6
139 174 10
139 176 3
139 178 7
139 181 10
139 185 5
139 193 2
139 197 4
140 145 1
140 146 7
140 169 2
140 196 1
141 142 3
141 144 3
141 165 2
141 174 8
141 176 4
141 190 7
141 194 2
141 197 9
142 191 4
142 194 6
143 146 1
143 150 8
143 156 4
143 163 3
143 174 10
143 180 9
143 195 6
144 173 5
144 186 7
144 188 10
144 193 10
145 146 5
145 147 6
145 169 7
145 191 5
146 147 5
146 149 3
146 164 4
146 170 9
146 175 8
146 182 9
146 192 3
147 162 6
147 164 8
147 200 5
148 149 10
148 170 8
148 172 2
148 174 5
148 180 9
148 182 3
148 183 4
148 196 8
148 198 2
149 152 6
149 155 3
149 159 8
149 180 1
149 190 7
149 191 1
150 157 8
150 179 6
150 181 6
150 195 1
151 168 3
151 185 9
151 191 2
152 158 4
152 172 1
152 174 6
153 167 8
153 176 5
153 179 9
153 181 1
153 184 8
153 186 8
153 197 1
154 155 5
154 157 9
154 170 7
154 190 10
154 193 5
154 198 3
154 200 1
155 164 5
155 184 1
155 187 1
155 198 10
156 161 7
156 164 3
156 166 5
156 181 1
157 171 10
157 184 7
157 194 9
158 162 2
158 163 4
158 164 10
158 165 3
158 170 1
158 188 2
158 198 8
158 199 1
159 162 6
159 169 2
159 195 8
160 164 7
160 168 4
160 173 7
160 175 4
160 183 7
161 162 8
161 183 3
162 168 6
163 170 4
163 180 10
163 192 10
163 199 8
164 176 6
164 180 4
164 185 3
164 187 6
165 167 9
165 195 9
165 200 3
166 177 3
166 184 6
166 187 8
166 188 2
166 190 5
167 177 9
168 169 2
168 170 3
168 174 8
168 181 3
168 185 5
168 188 6
168 198 7
169 189 8
170 172 3
170 185 6
171 172 3
171 178 4
172 173 10
172 176 10
172 178 8
172 189 6
173 174 6
173 182 1
173 198 1
174 177 1
174 182 4
174 183 1
174 189 3
175 198 6
175 200 10
176 185 1
176 191 2
176 192 5
177 198 5
178 199 6
179 181 1
179 185 5
179 188 3
179 196 6
180 184 9
180 185 2
180 190 5
180 195 2
180 196 7
183 189 1
184 186 10
185 194 5
186 192 6
186 199 2
187 190 5
187 198 10
188 194 8
189 191 2
189 196 7
190 192 10
190 199 2
192 199 2
193 195 3
193 196 10
193 198 5
198 199 2
