300 13455 1100
2
8
6
8
2
5
4
5
1
3
5
7
7
3
3
2
1
6
4
7
10
4
2
9
10
5
7
7
3
7
9
3
3
9
9
9
5
2
5
9
3
1
1
10
4
10
7
7
3
4
4
10
8
5
4
9
5
7
4
5
7
5
7
3
4
8
1
1
4
1
2
2
2
8
8
6
1
3
2
2
1
5
10
3
7
10
9
4
3
5
9
6
3
7
8
5
7
6
4
9
7
4
5
1
4
8
2
9
2
7
8
4
7
10
4
9
7
2
4
7
1
8
8
2
4
10
5
8
10
9
9
4
8
1
6
10
7
1
4
4
3
8
8
10
1
3
10
6
3
6
8
8
2
7
3
1
5
8
7
1
1
4
8
6
7
5
7
6
5
10
2
1
9
8
3
4
7
3
1
10
10
10
10
4
8
6
5
8
4
3
3
1
3
4
3
2
6
1
4
9
9
3
10
8
6
1
5
9
9
2
8
6
7
1
7
3
2
7
5
3
2
8
8
1
8
5
4
4
3
1
9
7
9
2
10
9
3
1
7
1
2
9
9
9
9
10
9
1
8
7
10
3
3
9
8
5
6
10
8
5
8
6
10
9
8
7
4
8
7
9
1
1
8
10
5
9
10
10
9
10
8
2
5
3
10
2
2
4
7
2
2
8
1
2
3
6
10
4
5
7
1 2 9
1 5 6
1 15 2
1 20 3
1 22 6
1 24 7
1 29 5
1 34 4
1 37 9
1 39 2
1 43 1
1 44 1
1 45 10
1 47 9
1 52 5
1 56 6
1 59 10
1 60 9
1 63 2
1 64 9
1 69 2
1 73 4
1 74 8
1 78 3
1 79 1
1 80 5
1 83 1
1 84 5
1 85 8
1 92 5
1 94 5
1 95 6
1 96 10
1 97 8
1 98 8
1 99 2
1 105 3
1 109 7
1 112 2
1 115 10
1 117 8
1 118 5
1 123 2
1 124 8
1 129 5
1 131 10
1 136 8
1 141 3
1 142 2
1 143 3
1 144 1
1 145 10
1 146 10
1 152 7
1 153 7
1 154 8
1 155 4
1 156 10
1 157 4
1 161 7
1 162 3
1 164 7
1 166 1
1 167 7
1 168 6
1 169 4
1 170 7
1 174 9
1 177 7
1 178 9
1 183 2
1 185 8
1 189 6
1 193 6
1 197 3
1 204 3
1 215 6
1 216 2
1 217 6
1 220 2
1 221 6
1 225 3
1 227 6
1 230 7
1 233 5
1 236 5
1 238 6
1 239 5
1 242 7
1 244 1
1 246 6
1 249 7
1 251 3
1 255 3
1 256 6
1 258 9
1 263 9
1 264 8
1 267 2
1 270 9
1 276 4
1 277 1
1 283 4
1 285 9
1 294 2
1 297 7
1 299 3
1 300 2
2 8 7
2 10 5
2 12 5
2 15 7
2 16 3
2 17 4
2 20 7
2 25 9
2 28 9
2 30 5
2 38 7
2 40 4
2 45 3
2 46 1
2 48 10
2 51 8
2 52 1
2 53 9
2 54 1
2 55 1
2 56 3
2 57 2
2 59 5
2 66 7
2 70 3
2 72 1
2 74 8
2 78 9
2 79 2
2 81 6
2 83 2
2 85 1
2 86 9
2 94 4
2 98 8
2 99 5
2 100 5
2 102 6
2 105 1
2 111 4
2 118 9
2 124 5
2 132 2
2 141 10
2 145 7
2 146 7
2 147 2
2 152 1
2 157 3
2 160 4
2 162 3
2 165 3
2 167 7
2 168 6
2 171 10
2 174 3
2 177 10
2 190 7
2 191 8
2 196 10
2 200 6
2 201 10
2 202 4
2 208 2
2 211 7
2 223 10
2 229 1
2 230 2
2 240 5
2 249 5
2 253 1
2 255 10
2 256 1
2 263 7
2 265 5
2 269 2
2 271 5
2 273 1
2 275 10
2 276 9
2 277 9
2 278 6
2 283 7
2 284 1
2 285 7
2 286 8
2 288 8
2 294 3
3 4 5
3 16 6
3 17 7
3 22 10
3 29 5
3 30 2
3 32 4
3 33 6
3 34 3
3 37 10
3 38 8
3 39 6
3 41 5
3 48 1
3 51 1
3 53 6
3 59 5
3 61 9
3 62 2
3 67 7
3 68 3
3 69 5
3 74 7
3 76 8
3 79 10
3 82 2
3 83 3
3 84 2
3 86 6
3 87 9
3 88 5
3 89 2
3 90 7
3 97 9
3 100 2
3 101 4
3 107 8
3 112 8
3 113 3
3 121 8
3 123 8
3 127 6
3 131 2
3 136 4
3 140 6
3 144 7
3 146 1
3 147 4
3 155 9
3 157 9
3 161 2
3 169 6
3 171 6
3 173 3
3 181 3
3 182 9
3 187 8
3 189 7
3 191 4
3 193 9
3 195 4
3 197 4
3 199 4
3 203 6
3 204 8
3 208 10
3 211 10
3 212 2
3 214 7
3 220 2
3 222 6
3 224 6
3 226 6
3 230 2
3 232 7
3 243 2
3 248 10
3 251 4
3 255 6
3 259 3
3 267 8
3 274 2
3 282 9
3 288 4
3 294 3
3 295 4
3 298 5
4 7 9
4 9 7
4 11 4
4 13 5
4 16 4
4 28 1
4 29 7
4 31 10
4 35 8
4 36 3
4 40 8
4 41 1
4 46 6
4 49 7
4 52 4
4 54 6
4 56 5
4 57 10
4 58 4
4 59 5
4 63 9
4 68 1
4 70 9
4 71 10
4 73 6
4 76 7
4 79 1
4 83 5
4 84 10
4 85 5
4 87 6
4 88 4
4 91 2
4 93 10
4 94 7
4 95 7
4 99 2
4 100 10
4 102 10
4 105 7
4 114 8
4 119 2
4 122 1
4 124 6
4 127 6
4 128 6
4 133 6
4 135 2
4 155 10
4 158 4
4 160 7
4 162 7
4 165 9
4 172 1
4 174 9
4 180 3
4 181 6
4 182 9
4 185 7
4 189 8
4 193 10
4 196 10
4 201 7
4 202 8
4 205 4
4 211 2
4 220 1
4 222 9
4 225 10
4 228 1
4 229 3
4 230 7
4 231 2
4 238 2
4 239 10
4 242 1
4 244 5
4 245 3
4 247 3
4 252 4
4 253 6
4 264 9
4 265 3
4 266 3
4 269 4
4 276 3
4 279 6
4 280 10
4 283 5
4 292 7
4 293 5
4 295 5
4 297 7
5 14 3
5 15 7
5 16 3
5 19 4
5 22 3
5 23 10
5 27 3
5 29 4
5 30 2
5 33 6
5 34 4
5 36 9
5 40 8
5 42 8
5 45 5
5 47 1
5 51 1
5 52 7
5 53 9
5 56 10
5 60 1
5 61 10
5 63 9
5 64 1
5 65 9
5 69 3
5 70 9
5 71 9
5 72 7
5 76 7
5 77 1
5 85 10
5 92 2
5 94 3
5 95 7
5 96 4
5 97 6
5 98 7
5 103 1
5 104 6
5 109 3
5 110 4
5 118 5
5 121 3
5 122 3
5 129 2
5 131 6
5 133 7
5 134 3
5 137 7
5 143 9
5 144 1
5 151 5
5 152 3
5 158 8
5 167 1
5 168 4
5 171 5
5 177 2
5 182 2
5 184 3
5 185 6
5 188 8
5 189 3
5 190 3
5 193 1
5 197 4
5 198 6
5 201 6
5 205 10
5 206 6
5 208 10
5 209 3
5 211 5
5 221 10
5 222 2
5 226 4
5 227 1
5 233 4
5 239 9
5 244 1
5 248 7
5 249 7
5 250 9
5 259 3
5 263 5
5 266 3
5 267 4
5 268 8
5 270 2
5 272 9
5 273 4
5 274 7
5 276 1
5 277 9
5 278 6
5 283 4
5 284 8
5 286 3
5 287 9
5 288 1
5 290 8
5 291 7
5 294 2
5 295 5
5 296 8
5 300 8
6 11 9
6 13 6
6 16 6
6 18 5
6 25 5
6 27 8
6 31 1
6 32 6
6 36 7
6 38 9
6 40 10
6 49 5
6 51 3
6 52 4
6 53 9
6 56 2
6 59 3
6 60 10
6 61 7
6 62 2
6 63 10
6 65 7
6 66 10
6 67 2
6 68 9
6 70 1
6 72 2
6 73 2
6 74 3
6 79 7
6 86 6
6 90 1
6 91 1
6 92 1
6 95 9
6 104 3
6 105 6
6 109 6
6 115 3
6 116 5
6 117 2
6 119 2
6 120 9
6 121 6
6 123 7
6 124 3
6 126 10
6 131 7
6 134 8
6 136 8
6 138 1
6 149 2
6 150 6
6 153 9
6 154 6
6 159 4
6 160 5
6 161 2
6 163 3
6 166 6
6 168 1
6 176 1
6 179 5
6 181 2
6 186 3
6 188 6
6 190 2
6 196 5
6 198 10
6 200 4
6 202 9
6 208 10
6 211 6
6 217 8
6 221 1
6 224 8
6 227 8
6 229 2
6 230 9
6 234 4
6 238 4
6 239 9
6 240 5
6 241 3
6 242 1
6 243 8
6 245 10
6 246 3
6 251 6
6 253 10
6 256 9
6 260 6
6 268 5
6 269 5
6 275 6
6 279 8
6 281 6
6 283 9
6 284 4
6 288 5
6 296 9
7 8 5
7 9 6
7 16 1
7 19 1
7 20 2
7 21 8
7 25 3
7 27 3
7 28 9
7 29 2
7 31 6
7 39 8
7 46 9
7 47 7
7 57 6
7 65 2
7 69 5
7 70 8
7 72 9
7 78 9
7 83 9
7 86 5
7 91 6
7 94 6
7 96 4
7 99 7
7 107 4
7 108 7
7 116 3
7 121 6
7 124 3
7 129 1
7 133 6
7 135 5
7 136 8
7 137 9
7 143 7
7 144 8
7 153 7
7 155 6
7 156 1
7 158 3
7 161 10
7 169 10
7 171 8
7 174 6
7 175 3
7 180 8
7 182 8
7 183 10
7 187 1
7 192 8
7 193 3
7 196 5
7 197 4
7 199 9
7 202 4
7 203 9
7 204 9
7 207 6
7 208 4
7 209 1
7 211 3
7 213 9
7 214 10
7 217 10
7 219 9
7 231 4
7 234 5
7 236 9
7 238 10
7 241 9
7 243 4
7 245 1
7 250 4
7 253 5
7 256 3
7 257 5
7 259 4
7 262 10
7 265 8
7 266 5
7 267 10
7 269 9
7 270 8
7 272 10
7 274 4
7 276 5
7 277 6
7 287 6
7 290 10
7 292 5
7 294 2
7 297 4
7 299 8
8 9 7
8 16 9
8 18 10
8 21 5
8 22 10
8 29 2
8 30 10
8 31 7
8 33 5
8 37 8
8 43 1
8 45 5
8 47 8
8 52 9
8 53 10
8 54 6
8 57 3
8 59 1
8 73 9
8 74 4
8 79 1
8 84 3
8 85 3
8 91 7
8 94 4
8 95 2
8 98 1
8 100 9
8 102 5
8 103 3
8 104 6
8 112 7
8 114 6
8 116 1
8 118 4
8 122 4
8 124 6
8 125 5
8 126 5
8 128 9
8 138 8
8 140 9
8 144 6
8 147 8
8 154 3
8 155 8
8 161 10
8 163 8
8 169 2
8 170 4
8 177 8
8 190 1
8 193 1
8 198 3
8 204 2
8 211 5
8 226 9
8 232 3
8 234 4
8 236 8
8 244 2
8 252 9
8 256 4
8 258 5
8 264 7
8 267 1
8 268 6
8 271 6
8 273 5
8 276 1
8 277 1
8 279 2
8 280 2
8 286 5
8 289 8
8 290 8
8 298 10
8 299 3
9 14 10
9 16 1
9 17 5
9 18 8
9 19 1
9 29 5
9 30 4
9 36 2
9 37 9
9 38 2
9 39 6
9 42 4
9 44 7
9 47 10
9 49 2
9 55 4
9 57 6
9 60 5
9 68 9
9 71 4
9 77 5
9 81 6
9 87 8
9 92 8
9 99 7
9 116 10
9 117 4
9 121 5
9 125 9
9 127 6
9 128 10
9 130 6
9 131 3
9 132 2
9 133 1
9 137 7
9 138 2
9 142 6
9 146 2
9 150 3
9 153 8
9 155 10
9 156 1
9 162 7
9 168 6
9 169 1
9 172 6
9 173 6
9 180 6
9 181 4
9 182 6
9 183 10
9 184 10
9 186 3
9 189 7
9 191 3
9 192 9
9 194 4
9 197 8
9 200 1
9 202 4
9 206 4
9 222 5
9 225 7
9 233 5
9 234 7
9 235 3
9 236 6
9 239 7
9 242 6
9 244 5
9 246 8
9 247 6
9 254 8
9 255 10
9 265 5
9 266 5
9 267 1
9 273 9
9 274 6
9 275 7
9 278 3
9 291 5
9 292 2
9 295 3
9 296 2
10 14 4
10 18 7
10 20 4
10 24 3
10 25 5
10 28 5
10 31 8
10 35 6
10 41 10
10 42 6
10 45 7
10 46 9
10 49 1
10 51 6
10 52 2
10 53 6
10 55 3
10 56 5
10 57 5
10 62 5
10 65 9
10 67 9
10 69 9
10 71 4
10 72 6
10 73 10
10 74 4
10 77 4
10 79 6
10 86 2
10 89 5
10 91 3
10 93 5
10 98 7
10 103 9
10 107 8
10 110 6
10 112 7
10 117 4
10 120 10
10 122 3
10 125 9
10 133 1
10 135 8
10 148 1
10 155 7
10 158 10
10 163 10
10 165 3
10 168 7
10 170 9
10 171 5
10 173 6
10 174 4
10 175 4
10 176 9
10 182 3
10 186 2
10 187 5
10 189 6
10 190 3
10 195 3
10 200 10
10 201 10
10 203 7
10 208 6
10 214 7
10 218 10
10 221 2
10 224 1
10 225 2
10 226 5
10 229 5
10 230 1
10 232 4
10 237 10
10 238 1
10 242 4
10 256 8
10 259 10
10 263 1
10 264 7
10 266 3
10 278 2
10 279 4
10 282 3
10 286 5
10 293 10
10 295 8
10 297 8
11 12 8
11 13 7
11 17 7
11 20 5
11 22 10
11 25 5
11 32 7
11 44 2
11 46 1
11 49 1
11 51 10
11 57 5
11 65 4
11 69 6
11 76 3
11 80 2
11 86 4
11 88 2
11 97 10
11 99 4
11 101 10
11 102 10
11 113 6
11 116 9
11 122 9
11 130 8
11 131 6
11 133 7
11 140 2
11 141 7
11 142 9
11 145 4
11 151 10
11 153 6
11 154 8
11 159 1
11 175 7
11 178 2
11 179 1
11 182 3
11 186 9
11 192 9
11 194 6
11 202 5
11 203 6
11 204 8
11 205 7
11 208 8
11 212 1
11 214 10
11 217 4
11 218 2
11 229 7
11 231 7
11 234 9
11 237 1
11 239 9
11 240 1
11 244 1
11 246 4
11 251 10
11 254 8
11 258 1
11 266 9
11 267 3
11 271 3
11 272 5
11 273 7
11 274 3
11 276 8
11 277 3
11 280 10
11 287 3
11 290 2
11 291 6
11 293 7
11 295 2
11 296 1
11 300 6
12 19 9
12 20 9
12 25 1
12 30 9
12 32 8
12 33 6
12 34 9
12 35 1
12 36 8
12 37 1
12 40 6
12 48 6
12 50 10
12 56 4
12 57 4
12 59 7
12 61 6
12 62 9
12 64 2
12 66 10
12 69 2
12 71 6
12 72 4
12 77 10
12 78 4
12 79 1
12 82 3
12 87 4
12 92 5
12 95 6
12 99 3
12 101 1
12 102 8
12 106 3
12 107 1
12 111 2
12 115 9
12 118 4
12 120 5
12 128 1
12 134 2
12 136 9
12 139 10
12 141 5
12 147 8
12 150 5
12 151 9
12 153 8
12 155 4
12 158 2
12 162 9
12 163 5
12 166 5
12 175 9
12 176 10
12 178 5
12 185 4
12 188 1
12 189 10
12 192 10
12 194 4
12 196 3
12 198 8
12 201 8
12 203 10
12 205 5
12 206 8
12 208 3
12 211 7
12 213 4
12 214 8
12 215 6
12 216 6
12 217 3
12 218 1
12 221 6
12 230 6
12 231 6
12 234 10
12 236 2
12 237 7
12 239 9
12 247 7
12 249 8
12 250 5
12 251 9
12 252 3
12 253 7
12 259 7
12 261 4
12 268 3
12 270 1
12 275 2
12 279 1
12 282 2
12 287 10
12 294 9
12 296 4
12 299 6
13 18 8
13 22 10
13 26 9
13 29 3
13 32 9
13 33 1
13 35 2
13 37 6
13 40 5
13 42 4
13 47 2
13 51 8
13 57 9
13 61 10
13 64 1
13 68 9
13 71 3
13 75 10
13 77 2
13 79 4
13 85 2
13 91 9
13 92 4
13 93 4
13 95 5
13 98 8
13 99 9
13 101 10
13 103 6
13 105 3
13 108 8
13 115 7
13 116 2
13 117 1
13 124 6
13 125 10
13 126 6
13 132 4
13 133 7
13 143 4
13 144 3
13 147 1
13 148 2
13 152 9
13 154 8
13 155 9
13 158 6
13 166 7
13 167 4
13 168 4
13 169 6
13 172 7
13 175 5
13 177 9
13 178 5
13 179 10
13 182 1
13 183 10
13 187 1
13 188 9
13 190 4
13 194 5
13 196 4
13 197 4
13 198 9
13 203 9
13 206 6
13 208 7
13 209 1
13 211 8
13 214 2
13 215 4
13 216 1
13 220 3
13 221 10
13 224 4
13 230 1
13 237 1
13 240 10
13 242 7
13 245 9
13 251 2
13 253 3
13 254 3
13 255 6
13 257 4
13 258 7
13 265 8
13 267 3
13 273 10
13 274 7
13 278 4
13 282 8
13 283 10
13 286 7
14 15 9
14 18 3
14 21 7
14 22 4
14 27 6
14 29 6
14 30 10
14 33 8
14 34 5
14 37 4
14 39 6
14 43 7
14 53 2
14 59 7
14 62 10
14 63 6
14 65 4
14 71 7
14 74 2
14 75 3
14 78 9
14 79 9
14 82 1
14 87 9
14 93 10
14 99 1
14 100 10
14 102 2
14 105 5
14 106 3
14 109 1
14 110 3
14 114 6
14 116 8
14 119 4
14 121 8
14 125 5
14 129 3
14 133 8
14 137 9
14 141 9
14 143 1
14 159 1
14 162 1
14 165 2
14 168 9
14 170 7
14 172 3
14 173 4
14 174 9
14 175 6
14 180 2
14 181 3
14 192 9
14 194 2
14 198 2
14 199 7
14 204 9
14 206 1
14 207 9
14 209 9
14 214 3
14 215 4
14 218 8
14 219 2
14 220 7
14 225 5
14 231 7
14 232 1
14 233 6
14 236 5
14 241 5
14 242 6
14 247 10
14 251 8
14 252 8
14 257 8
14 259 8
14 262 1
14 263 8
14 266 3
14 269 8
14 273 8
14 277 3
14 280 5
14 281 6
14 282 1
14 284 1
14 287 4
14 289 4
14 290 8
14 295 3
14 299 5
14 300 4
15 16 10
15 20 6
15 21 10
15 22 5
15 23 9
15 26 9
15 27 4
15 28 4
15 32 3
15 33 8
15 34 6
15 37 6
15 39 3
15 40 10
15 43 4
15 48 1
15 49 3
15 50 7
15 57 8
15 60 10
15 65 9
15 67 3
15 69 1
15 71 8
15 74 7
15 75 5
15 84 9
15 87 9
15 88 8
15 89 6
15 95 10
15 100 10
15 111 4
15 119 3
15 127 6
15 134 1
15 139 9
15 142 6
15 144 2
15 148 1
15 149 7
15 155 5
15 156 10
15 157 8
15 158 1
15 166 1
15 167 8
15 169 7
15 170 8
15 176 3
15 182 10
15 187 6
15 195 7
15 196 7
15 200 7
15 205 2
15 209 7
15 218 4
15 221 10
15 222 1
15 226 6
15 228 2
15 230 8
15 239 5
15 241 7
15 246 10
15 248 1
15 250 2
15 252 5
15 262 2
15 265 6
15 268 1
15 269 4
15 273 8
15 277 9
15 282 9
15 284 10
15 285 8
15 299 8
16 19 10
16 24 7
16 33 9
16 34 4
16 37 4
16 38 10
16 39 3
16 43 5
16 46 6
16 48 4
16 59 10
16 63 2
16 64 8
16 66 10
16 70 5
16 72 10
16 76 7
16 78 1
16 81 9
16 87 4
16 88 10
16 91 9
16 93 8
16 94 7
16 95 6
16 96 1
16 97 2
16 99 3
16 101 2
16 102 4
16 105 4
16 111 3
16 113 4
16 118 2
16 123 4
16 124 5
16 132 3
16 135 8
16 136 10
16 137 3
16 145 8
16 147 3
16 152 2
16 153 2
16 157 5
16 159 5
16 163 6
16 168 6
16 170 6
16 174 4
16 182 9
16 186 2
16 193 6
16 195 8
16 210 5
16 212 2
16 218 6
16 220 5
16 224 2
16 228 9
16 232 9
16 241 7
16 252 5
16 254 7
16 265 5
16 271 6
16 272 8
16 274 8
16 275 9
16 277 10
16 278 2
16 284 5
16 290 6
16 291 10
16 295 7
16 296 8
16 299 10
16 300 6
17 21 8
17 22 6
17 25 10
17 28 10
17 32 10
17 34 5
17 39 4
17 45 7
17 46 10
17 47 6
17 51 1
17 58 7
17 61 1
17 64 2
17 65 3
17 72 7
17 73 1
17 74 6
17 76 2
17 79 7
17 84 3
17 88 10
17 93 8
17 98 6
17 100 2
17 102 10
17 105 2
17 107 2
17 115 6
17 119 8
17 125 10
17 126 1
17 130 1
17 131 1
17 137 10
17 139 6
17 140 2
17 148 2
17 152 5
17 153 7
17 156 2
17 158 9
17 160 6
17 163 5
17 166 7
17 167 8
17 171 3
17 173 10
17 174 7
17 175 9
17 178 2
17 179 6
17 180 8
17 182 9
17 184 9
17 185 7
17 186 1
17 188 8
17 189 6
17 191 3
17 194 8
17 203 9
17 207 1
17 208 5
17 212 1
17 216 5
17 219 9
17 226 3
17 228 9
17 231 1
17 233 10
17 234 4
17 236 9
17 243 1
17 245 4
17 246 1
17 247 9
17 249 9
17 253 8
17 255 1
17 257 6
17 261 9
17 265 9
17 267 9
17 272 4
17 277 2
17 280 2
17 282 8
17 284 8
17 290 8
17 291 10
17 292 5
17 294 4
17 295 7
17 296 10
17 300 10
18 19 4
18 20 2
18 29 7
18 32 10
18 33 10
18 41 8
18 42 4
18 43 10
18 47 7
18 53 9
18 55 7
18 59 9
18 61 10
18 62 10
18 69 6
18 72 3
18 74 5
18 75 2
18 77 5
18 78 5
18 83 9
18 89 6
18 91 2
18 92 3
18 94 2
18 98 5
18 105 6
18 106 8
18 109 10
18 112 10
18 113 6
18 114 6
18 115 4
18 116 6
18 119 2
18 120 10
18 127 6
18 128 2
18 130 8
18 133 8
18 134 3
18 146 10
18 147 10
18 149 5
18 155 7
18 163 7
18 168 10
18 171 10
18 173 3
18 178 9
18 180 5
18 186 7
18 188 1
18 191 9
18 192 6
18 196 9
18 197 2
18 201 8
18 202 10
18 205 8
18 208 1
18 212 8
18 215 7
18 220 2
18 221 5
18 222 6
18 235 1
18 239 4
18 242 7
18 247 3
18 254 3
18 256 6
18 258 9
18 265 4
18 267 8
18 270 5
18 272 7
18 273 2
18 274 10
18 278 4
18 279 8
18 283 4
18 284 2
18 287 3
18 292 7
18 294 5
18 295 9
19 20 6
19 30 9
19 31 3
19 32 8
19 36 4
19 41 8
19 47 1
19 54 7
19 55 9
19 61 10
19 63 7
19 67 2
19 69 5
19 70 1
19 71 5
19 72 10
19 77 10
19 78 5
19 81 2
19 90 6
19 91 10
19 92 7
19 94 10
19 102 2
19 106 1
19 110 6
19 113 5
19 116 7
19 117 3
19 118 4
19 122 4
19 132 4
19 135 10
19 137 5
19 141 8
19 154 2
19 157 2
19 158 2
19 164 1
19 169 3
19 173 1
19 175 6
19 179 4
19 180 8
19 181 6
19 183 10
19 189 8
19 190 8
19 195 5
19 197 3
19 198 3
19 201 8
19 203 4
19 205 3
19 208 7
19 210 8
19 213 1
19 214 3
19 219 10
19 220 1
19 233 2
19 234 6
19 236 5
19 240 3
19 241 6
19 243 5
19 245 3
19 246 7
19 250 6
19 253 10
19 254 10
19 263 2
19 266 4
19 274 3
19 279 10
19 283 1
19 284 7
19 287 10
19 289 7
19 290 4
19 293 7
19 296 3
19 297 6
19 299 5
20 23 6
20 28 10
20 31 5
20 32 7
20 33 3
20 44 4
20 54 4
20 55 10
20 62 7
20 63 4
20 64 8
20 66 3
20 71 5
20 75 3
20 76 7
20 78 10
20 79 6
20 80 6
20 86 6
20 90 8
20 95 4
20 96 9
20 100 6
20 103 10
20 107 9
20 113 5
20 114 3
20 116 1
20 118 1
20 121 6
20 126 3
20 132 4
20 134 6
20 141 5
20 142 1
20 144 1
20 147 2
20 151 10
20 157 3
20 158 10
20 160 5
20 162 8
20 164 1
20 170 5
20 172 10
20 175 10
20 177 8
20 180 4
20 187 4
20 189 9
20 190 5
20 197 4
20 203 2
20 204 1
20 206 10
20 209 8
20 211 1
20 212 3
20 219 3
20 229 4
20 232 8
20 233 8
20 240 5
20 241 4
20 242 10
20 244 2
20 245 8
20 247 2
20 250 9
20 253 5
20 254 7
20 256 4
20 257 9
20 258 4
20 264 9
20 273 3
20 279 6
20 280 5
20 289 6
20 291 2
20 292 1
20 293 7
20 295 6
20 296 10
20 298 6
21 24 10
21 27 9
21 28 6
21 29 4
21 32 3
21 43 5
21 47 10
21 54 8
21 60 4
21 62 4
21 65 4
21 68 2
21 71 10
21 77 2
21 79 5
21 83 10
21 85 1
21 96 7
21 107 7
21 112 7
21 113 8
21 114 6
21 118 9
21 125 5
21 128 3
21 129 10
21 133 10
21 134 10
21 139 7
21 145 5
21 152 7
21 157 10
21 158 8
21 163 3
21 166 3
21 173 8
21 176 8
21 177 1
21 178 5
21 179 3
21 186 2
21 190 9
21 192 7
21 196 8
21 205 6
21 206 1
21 210 2
21 211 4
21 213 8
21 214 2
21 222 4
21 225 6
21 226 3
21 227 3
21 229 10
21 234 8
21 236 8
21 240 1
21 241 4
21 247 4
21 248 9
21 251 2
21 258 10
21 259 7
21 264 4
21 267 9
21 269 6
21 279 6
21 280 6
21 283 4
21 284 7
21 285 7
21 287 3
21 288 3
21 289 10
21 290 9
21 292 10
21 294 8
21 299 8
22 25 7
22 40 4
22 47 9
22 54 9
22 58 2
22 60 1
22 62 2
22 66 6
22 67 7
22 71 4
22 76 10
22 78 1
22 79 4
22 86 8
22 95 2
22 98 2
22 99 4
22 104 4
22 106 4
22 107 2
22 110 4
22 112 4
22 123 3
22 124 10
22 125 3
22 133 10
22 138 7
22 148 2
22 149 10
22 156 6
22 158 6
22 163 6
22 164 1
22 165 3
22 166 8
22 173 10
22 175 2
22 176 7
22 181 5
22 182 8
22 183 2
22 184 2
22 187 5
22 189 2
22 191 2
22 192 5
22 196 2
22 216 3
22 222 6
22 225 5
22 237 5
22 250 10
22 252 4
22 253 5
22 256 1
22 260 9
22 261 4
22 262 4
22 265 10
22 266 8
22 268 9
22 271 1
22 273 6
22 283 1
22 284 4
22 285 4
22 286 4
22 290 2
22 296 2
22 300 3
23 24 9
23 36 8
23 37 7
23 38 6
23 44 9
23 48 1
23 49 8
23 59 9
23 60 5
23 73 4
23 75 5
23 79 8
23 80 1
23 85 8
23 92 6
23 100 8
23 102 10
23 103 8
23 106 3
23 111 6
23 112 2
23 114 5
23 117 6
23 119 9
23 125 4
23 126 6
23 127 6
23 128 5
23 137 7
23 138 9
23 139 7
23 141 7
23 145 10
23 146 3
23 152 2
23 153 1
23 157 5
23 159 9
23 161 3
23 162 4
23 164 9
23 165 1
23 167 5
23 178 2
23 188 8
23 191 6
23 196 1
23 198 5
23 199 8
23 200 4
23 204 6
23 205 4
23 207 10
23 209 7
23 217 3
23 219 2
23 229 4
23 235 8
23 237 7
23 239 3
23 242 10
23 245 1
23 246 5
23 247 1
23 251 2
23 259 6
23 260 10
23 262 10
23 266 4
23 269 10
23 273 2
23 274 9
23 275 9
23 278 8
23 279 4
23 285 7
23 286 10
23 287 10
23 289 6
23 291 6
23 292 9
23 297 9
23 300 6
24 25 1
24 30 2
24 33 8
24 42 3
24 43 8
24 46 9
24 49 4
24 55 2
24 57 4
24 68 10
24 69 5
24 71 3
24 75 10
24 76 4
24 81 9
24 84 9
24 86 7
24 88 3
24 91 9
24 97 4
24 98 3
24 101 5
24 106 8
24 107 9
24 111 3
24 114 9
24 120 7
24 129 2
24 134 7
24 136 9
24 137 7
24 146 8
24 147 7
24 150 9
24 153 7
24 154 3
24 158 2
24 159 8
24 165 10
24 167 6
24 168 3
24 175 8
24 180 2
24 184 6
24 190 3
24 191 6
24 199 3
24 200 7
24 204 4
24 210 8
24 212 3
24 213 9
24 217 6
24 219 5
24 226 4
24 228 6
24 229 3
24 230 9
24 236 7
24 239 6
24 240 9
24 241 4
24 253 6
24 254 6
24 255 6
24 268 2
24 269 5
24 272 10
24 280 6
24 283 6
24 285 6
24 289 8
24 291 3
24 294 7
25 51 8
25 53 7
25 57 1
25 60 4
25 65 6
25 67 2
25 75 7
25 77 10
25 78 2
25 80 5
25 82 5
25 95 5
25 99 1
25 106 8
25 111 2
25 113 2
25 117 1
25 119 2
25 121 5
25 127 1
25 133 8
25 134 4
25 141 9
25 142 3
25 143 4
25 145 1
25 147 10
25 155 7
25 158 8
25 159 6
25 170 9
25 174 7
25 182 8
25 188 8
25 191 5
25 195 7
25 198 10
25 202 5
25 210 6
25 215 9
25 220 3
25 224 6
25 239 6
25 246 4
25 251 8
25 252 8
25 257 10
25 261 7
25 274 4
25 275 2
25 277 3
25 278 5
25 282 9
25 286 2
25 293 7
25 295 5
25 296 5
26 29 9
26 32 6
26 35 3
26 38 2
26 40 5
26 43 10
26 44 8
26 46 7
26 48 6
26 49 2
26 54 10
26 55 9
26 57 8
26 58 10
26 64 9
26 68 2
26 69 5
26 73 1
26 77 8
26 81 7
26 86 7
26 90 1
26 93 4
26 99 10
26 102 4
26 109 2
26 111 3
26 112 9
26 113 6
26 114 5
26 119 5
26 120 7
26 130 7
26 132 6
26 135 6
26 136 7
26 140 5
26 144 4
26 149 7
26 151 1
26 158 3
26 166 9
26 172 9
26 173 5
26 174 6
26 175 1
26 177 9
26 178 10
26 184 7
26 185 4
26 187 9
26 188 3
26 190 6
26 193 6
26 196 2
26 200 1
26 209 1
26 212 9
26 218 2
26 221 7
26 222 9
26 223 10
26 224 7
26 226 8
26 227 5
26 231 8
26 236 8
26 238 5
26 239 1
26 240 6
26 243 6
26 244 9
26 245 7
26 248 9
26 250 6
26 252 6
26 256 6
26 257 3
26 263 6
26 276 9
26 278 4
26 288 6
26 289 7
26 293 3
26 296 8
26 300 5
27 30 10
27 32 7
27 38 2
27 42 7
27 43 4
27 50 10
27 52 6
27 53 1
27 63 7
27 68 9
27 72 6
27 75 2
27 76 4
27 80 4
27 99 8
27 100 6
27 101 10
27 105 4
27 106 10
27 112 3
27 115 5
27 118 1
27 120 4
27 123 4
27 124 7
27 125 2
27 126 10
27 128 7
27 129 4
27 135 1
27 140 2
27 141 5
27 146 5
27 148 6
27 154 4
27 157 9
27 158 5
27 162 8
27 163 6
27 164 9
27 170 1
27 172 8
27 173 2
27 179 7
27 181 1
27 191 3
27 199 7
27 203 7
27 204 10
27 205 6
27 207 7
27 211 4
27 225 5
27 226 6
27 227 3
27 230 3
27 232 3
27 233 9
27 242 6
27 250 8
27 251 1
27 252 5
27 253 9
27 256 8
27 259 6
27 262 6
27 266 8
27 268 4
27 274 3
27 278 2
27 282 6
27 288 5
27 289 10
27 293 8
27 300 2
28 32 4
28 34 6
28 42 7
28 45 8
28 46 3
28 47 10
28 49 3
28 59 1
28 63 10
28 66 8
28 67 1
28 68 5
28 70 7
28 74 5
28 75 7
28 78 4
28 79 1
28 80 4
28 83 10
28 85 10
28 91 3
28 100 3
28 103 4
28 104 6
28 106 10
28 108 7
28 109 4
28 111 9
28 112 9
28 121 6
28 125 6
28 126 6
28 128 5
28 133 4
28 134 5
28 136 9
28 139 5
28 140 10
28 149 1
28 150 9
28 154 10
28 155 4
28 158 8
28 162 10
28 164 5
28 166 9
28 167 7
28 172 4
28 185 8
28 187 10
28 188 3
28 190 5
28 192 1
28 194 4
28 199 10
28 200 4
28 207 5
28 212 4
28 216 7
28 221 2
28 222 7
28 227 1
28 230 7
28 236 6
28 237 5
28 244 8
28 245 8
28 246 7
28 247 5
28 248 6
28 251 1
28 252 4
28 253 10
28 255 6
28 257 5
28 258 10
28 260 6
28 261 6
28 266 2
28 271 1
28 272 1
28 273 1
28 276 10
28 279 4
28 280 5
28 281 2
28 283 1
28 300 2
29 34 6
29 36 5
29 42 1
29 44 9
29 47 7
29 50 8
29 51 9
29 52 2
29 56 8
29 57 4
29 59 10
29 61 4
29 63 6
29 65 5
29 66 2
29 68 6
29 71 4
29 74 8
29 77 3
29 79 3
29 81 3
29 85 6
29 89 5
29 94 7
29 96 4
29 99 1
29 103 4
29 109 8
29 117 2
29 119 3
29 120 6
29 121 7
29 125 2
29 126 4
29 128 5
29 132 7
29 134 3
29 135 7
29 137 4
29 145 7
29 149 2
29 150 10
29 153 9
29 154 2
29 162 3
29 166 4
29 168 3
29 169 8
29 170 6
29 174 4
29 175 6
29 179 1
29 180 10
29 181 10
29 182 2
29 183 8
29 186 4
29 190 3
29 191 10
29 193 6
29 196 6
29 200 5
29 211 4
29 213 1
29 214 10
29 216 1
29 220 4
29 222 2
29 224 7
29 231 5
29 234 7
29 236 1
29 237 4
29 238 8
29 242 4
29 246 4
29 247 2
29 250 6
29 253 7
29 257 5
29 262 4
29 272 3
29 277 6
29 279 1
29 284 4
29 288 4
29 294 1
29 296 7
29 298 10
30 32 5
30 42 4
30 45 9
30 46 5
30 47 4
30 50 4
30 52 3
30 54 5
30 59 10
30 62 9
30 63 3
30 64 5
30 65 3
30 67 6
30 74 8
30 75 9
30 76 4
30 77 8
30 95 1
30 99 6
30 108 5
30 112 6
30 113 7
30 116 2
30 118 1
30 121 5
30 123 7
30 127 5
30 131 5
30 132 9
30 133 7
30 135 10
30 138 3
30 139 1
30 143 3
30 144 4
30 145 1
30 146 8
30 148 2
30 152 9
30 155 10
30 164 10
30 168 2
30 169 10
30 173 2
30 175 6
30 178 1
30 181 10
30 184 4
30 189 10
30 191 7
30 192 6
30 195 4
30 197 8
30 199 1
30 200 2
30 203 4
30 204 10
30 205 9
30 210 7
30 211 1
30 215 7
30 216 5
30 218 9
30 220 3
30 221 5
30 223 2
30 228 5
30 229 1
30 234 3
30 238 9
30 239 5
30 240 6
30 241 9
30 243 6
30 244 10
30 248 10
30 251 2
30 254 7
30 261 9
30 263 5
30 265 4
30 266 6
30 274 1
30 278 9
30 283 5
30 288 6
30 289 3
30 290 4
30 291 1
30 292 2
30 293 2
30 296 6
30 297 7
30 300 5
31 33 7
31 36 10
31 38 3
31 42 7
31 44 9
31 47 9
31 51 7
31 54 8
31 59 4
31 63 8
31 64 4
31 65 2
31 66 1
31 69 5
31 72 8
31 73 1
31 74 8
31 77 4
31 80 8
31 85 2
31 88 7
31 89 3
31 90 9
31 91 2
31 99 7
31 104 1
31 116 8
31 122 9
31 134 3
31 136 7
31 139 1
31 140 6
31 144 4
31 145 7
31 146 3
31 148 1
31 150 3
31 157 7
31 161 4
31 164 10
31 166 10
31 167 10
31 171 10
31 173 7
31 179 5
31 183 10
31 184 9
31 186 4
31 189 3
31 190 1
31 194 2
31 195 4
31 201 3
31 206 4
31 214 9
31 219 5
31 221 8
31 222 9
31 224 7
31 225 4
31 226 7
31 228 8
31 235 9
31 236 4
31 237 2
31 238 2
31 240 3
31 241 5
31 242 4
31 243 2
31 246 6
31 248 10
31 255 3
31 256 4
31 257 2
31 263 4
31 265 1
31 267 7
31 270 4
31 272 4
31 273 3
31 274 1
31 281 10
31 283 6
31 284 2
31 285 5
31 289 7
31 294 10
31 298 10
31 299 1
32 33 10
32 38 9
32 51 7
32 52 3
32 54 3
32 55 5
32 64 9
32 65 3
32 68 10
32 69 6
32 72 9
32 76 8
32 81 3
32 83 7
32 84 3
32 88 4
32 92 9
32 93 9
32 94 2
32 98 1
32 102 3
32 104 9
32 106 2
32 109 3
32 112 10
32 114 9
32 118 8
32 120 7
32 129 10
32 133 3
32 135 1
32 143 8
32 145 5
32 147 7
32 150 1
32 153 1
32 155 1
32 157 2
32 159 9
32 160 3
32 162 2
32 163 9
32 165 6
32 166 7
32 169 9
32 170 7
32 171 5
32 186 1
32 187 5
32 189 1
32 191 2
32 192 3
32 193 3
32 194 10
32 196 7
32 198 2
32 200 6
32 201 3
32 202 9
32 204 1
32 209 5
32 213 8
32 217 9
32 218 4
32 228 5
32 234 4
32 235 4
32 237 8
32 239 6
32 245 7
32 251 3
32 265 10
32 266 4
32 273 10
32 275 5
32 276 5
32 286 8
32 289 8
32 290 1
32 291 9
33 35 1
33 37 4
33 39 2
33 42 9
33 45 6
33 46 4
33 48 8
33 50 7
33 51 6
33 63 4
33 74 5
33 80 5
33 81 7
33 82 5
33 89 10
33 93 4
33 94 10
33 100 1
33 102 10
33 103 8
33 107 9
33 110 6
33 116 4
33 120 7
33 123 9
33 126 3
33 129 5
33 130 1
33 134 4
33 135 8
33 139 7
33 141 6
33 142 7
33 149 1
33 150 2
33 153 3
33 157 2
33 159 1
33 162 2
33 166 3
33 169 2
33 171 7
33 173 5
33 174 1
33 181 8
33 182 4
33 191 4
33 192 4
33 194 10
33 200 3
33 205 7
33 206 2
33 207 10
33 210 3
33 219 7
33 220 8
33 221 10
33 222 4
33 228 3
33 238 1
33 241 8
33 245 9
33 250 3
33 252 1
33 256 6
33 260 6
33 261 10
33 262 3
33 263 1
33 266 8
33 267 4
33 272 8
33 273 10
33 276 1
33 277 8
33 280 2
33 285 8
33 287 3
33 288 6
33 291 6
33 293 2
33 297 4
33 298 7
34 40 2
34 44 5
34 46 8
34 47 8
34 48 3
34 53 3
34 58 2
34 63 9
34 72 3
34 73 6
34 75 4
34 76 3
34 84 4
34 90 5
34 96 10
34 98 6
34 101 2
34 103 1
34 107 3
34 112 7
34 116 5
34 121 10
34 122 4
34 126 3
34 128 8
34 129 6
34 133 1
34 135 5
34 141 2
34 145 9
34 149 2
34 151 1
34 153 1
34 154 6
34 157 7
34 161 1
34 162 9
34 164 7
34 167 2
34 170 9
34 171 7
34 175 4
34 178 7
34 181 4
34 187 8
34 189 10
34 197 6
34 199 2
34 201 2
34 209 9
34 211 10
34 212 1
34 222 1
34 231 7
34 233 7
34 236 1
34 238 9
34 239 9
34 240 5
34 242 4
34 243 9
34 250 6
34 251 1
34 252 10
34 256 3
34 261 1
34 269 7
34 270 9
34 272 6
34 274 2
34 277 9
34 282 3
34 283 2
34 285 4
34 290 5
34 293 3
34 296 4
34 298 10
35 37 1
35 38 3
35 41 1
35 42 9
35 49 6
35 51 9
35 52 2
35 53 6
35 54 6
35 55 8
35 56 9
35 61 7
35 63 5
35 64 5
35 66 7
35 67 10
35 71 10
35 74 1
35 75 8
35 76 4
35 82 7
35 83 2
35 90 3
35 93 7
35 94 8
35 96 5
35 108 3
35 116 3
35 118 3
35 122 9
35 123 6
35 124 4
35 128 9
35 130 10
35 138 4
35 140 5
35 141 4
35 147 2
35 154 6
35 156 6
35 157 6
35 167 1
35 179 2
35 184 10
35 192 4
35 195 1
35 196 10
35 197 7
35 199 4
35 206 6
35 214 9
35 215 7
35 224 3
35 225 3
35 229 4
35 234 1
35 235 3
35 239 3
35 240 10
35 242 10
35 249 8
35 250 3
35 253 7
35 254 3
35 256 1
35 258 6
35 259 6
35 263 7
35 267 6
35 269 6
35 270 7
35 271 2
35 287 8
35 288 10
35 293 2
35 296 5
36 37 4
36 41 6
36 43 2
36 45 6
36 47 10
36 72 4
36 79 10
36 81 10
36 83 9
36 85 2
36 96 5
36 101 1
36 102 5
36 105 3
36 107 10
36 110 10
36 111 9
36 115 2
36 116 2
36 120 5
36 129 6
36 137 7
36 140 4
36 141 7
36 149 7
36 151 10
36 152 10
36 153 3
36 155 5
36 158 1
36 160 3
36 163 2
36 166 1
36 176 10
36 179 8
36 180 7
36 184 9
36 187 9
36 188 2
36 191 6
36 193 1
36 202 7
36 203 4
36 209 10
36 210 10
36 212 5
36 220 6
36 222 4
36 227 4
36 233 3
36 235 1
36 236 9
36 240 8
36 245 7
36 248 1
36 249 10
36 255 4
36 257 9
36 261 4
36 263 2
36 270 8
36 273 6
36 274 10
36 280 2
36 284 1
36 297 8
36 298 2
36 299 6
36 300 3
37 38 5
37 42 7
37 45 6
37 46 5
37 51 4
37 59 5
37 60 6
37 62 1
37 63 9
37 64 10
37 65 6
37 66 8
37 67 1
37 78 2
37 80 5
37 82 7
37 85 9
37 87 8
37 89 3
37 91 4
37 101 9
37 102 9
37 105 5
37 106 8
37 107 3
37 119 7
37 120 10
37 121 7
37 122 9
37 130 9
37 133 4
37 135 2
37 142 2
37 145 2
37 153 7
37 154 5
37 160 9
37 164 8
37 165 6
37 166 2
37 173 8
37 176 3
37 178 9
37 183 2
37 189 3
37 195 9
37 197 4
37 199 3
37 202 3
37 203 3
37 205 6
37 208 10
37 209 2
37 210 6
37 214 5
37 215 4
37 217 5
37 218 8
37 222 8
37 228 2
37 229 10
37 233 1
37 237 10
37 241 1
37 245 1
37 251 10
37 252 6
37 256 2
37 258 3
37 264 4
37 266 1
37 269 6
37 270 4
37 271 7
37 272 8
37 274 7
37 280 6
37 281 8
37 283 4
37 284 6
37 287 8
37 291 1
37 292 3
37 295 2
37 299 1
38 46 7
38 52 1
38 58 6
38 61 6
38 63 10
38 64 3
38 65 10
38 66 8
38 67 2
38 69 10
38 71 3
38 77 3
38 78 2
38 87 2
38 88 4
38 98 3
38 100 7
38 103 9
38 107 1
38 116 3
38 117 6
38 126 7
38 133 3
38 135 5
38 138 6
38 139 9
38 143 3
38 144 5
38 146 8
38 148 6
38 153 1
38 154 4
38 160 8
38 164 8
38 165 4
38 167 4
38 170 6
38 172 4
38 173 9
38 175 6
38 179 2
38 184 6
38 185 5
38 186 4
38 187 5
38 188 1
38 193 10
38 194 5
38 198 1
38 206 10
38 212 9
38 216 5
38 223 10
38 225 6
38 228 4
38 233 8
38 235 6
38 238 5
38 239 8
38 240 7
38 241 10
38 242 3
38 247 4
38 251 8
38 255 1
38 257 4
38 258 7
38 259 9
38 261 10
38 265 10
38 269 2
38 275 2
38 280 5
38 281 4
38 283 1
38 287 1
38 288 9
38 290 4
38 291 2
38 293 8
38 295 10
38 300 1
39 49 2
39 50 2
39 53 6
39 54 4
39 58 6
39 59 6
39 61 3
39 64 8
39 70 3
39 72 6
39 76 9
39 77 9
39 78 7
39 79 8
39 80 4
39 82 6
39 83 9
39 85 9
39 89 8
39 90 8
39 93 8
39 95 9
39 96 3
39 97 7
39 98 10
39 101 8
39 102 6
39 112 7
39 113 1
39 115 10
39 116 1
39 122 9
39 124 7
39 133 3
39 138 9
39 143 8
39 145 7
39 147 6
39 149 3
39 151 8
39 158 3
39 166 3
39 171 6
39 172 5
39 173 4
39 178 3
39 179 6
39 185 4
39 193 2
39 201 7
39 204 7
39 205 6
39 206 9
39 223 7
39 224 2
39 226 6
39 228 9
39 229 3
39 235 8
39 236 1
39 239 4
39 242 1
39 246 6
39 247 3
39 258 4
39 261 9
39 262 9
39 264 1
39 265 3
39 271 7
39 274 6
39 275 10
39 276 6
39 285 4
39 291 5
39 295 8
39 297 9
39 298 2
40 43 4
40 46 10
40 47 8
40 48 1
40 50 5
40 53 1
40 54 9
40 55 10
40 59 3
40 68 10
40 70 8
40 72 4
40 76 8
40 78 8
40 98 6
40 99 1
40 103 7
40 104 7
40 107 9
40 110 2
40 117 4
40 121 3
40 125 1
40 126 5
40 134 6
40 136 3
40 140 8
40 142 5
40 144 8
40 146 4
40 150 2
40 151 3
40 154 2
40 163 7
40 166 8
40 173 8
40 176 3
40 188 5
40 193 2
40 195 4
40 196 5
40 202 9
40 203 1
40 205 5
40 217 1
40 218 1
40 220 1
40 224 6
40 228 3
40 235 10
40 241 5
40 245 7
40 256 2
40 263 3
40 271 8
40 272 9
40 273 4
40 274 8
40 276 7
40 281 3
40 285 8
40 288 9
40 289 4
40 290 5
40 300 1
41 43 4
41 47 9
41 56 8
41 57 4
41 58 6
41 65 2
41 66 3
41 68 4
41 69 6
41 70 1
41 71 6
41 72 5
41 76 4
41 77 7
41 78 2
41 87 1
41 89 4
41 95 2
41 96 6
41 101 9
41 102 8
41 104 8
41 108 10
41 112 1
41 114 1
41 119 8
41 120 9
41 124 1
41 125 9
41 130 3
41 135 3
41 149 3
41 155 9
41 156 8
41 160 2
41 162 2
41 164 5
41 167 5
41 178 2
41 179 7
41 189 2
41 191 3
41 198 10
41 205 5
41 209 9
41 212 1
41 217 10
41 218 7
41 219 1
41 220 4
41 225 2
41 228 3
41 231 2
41 232 3
41 234 8
41 235 7
41 243 1
41 244 2
41 246 7
41 248 2
41 251 6
41 252 2
41 254 6
41 257 1
41 258 7
41 260 5
41 262 6
41 264 3
41 268 5
41 269 9
41 270 2
41 272 9
41 273 9
41 275 2
41 283 2
41 284 6
41 285 5
41 286 7
41 291 4
41 298 9
42 43 4
42 49 8
42 50 10
42 52 10
42 56 10
42 57 9
42 64 3
42 76 9
42 81 1
42 82 7
42 84 3
42 87 4
42 96 2
42 97 7
42 99 3
42 109 8
42 110 8
42 111 5
42 113 5
42 117 8
42 118 4
42 122 7
42 130 5
42 137 5
42 138 2
42 139 8
42 141 10
42 144 3
42 147 3
42 150 8
42 153 6
42 157 1
42 158 1
42 159 6
42 161 10
42 162 7
42 164 10
42 165 10
42 166 1
42 171 3
42 172 8
42 177 4
42 179 8
42 185 9
42 188 3
42 195 9
42 199 3
42 201 5
42 206 6
42 221 7
42 222 10
42 234 8
42 242 4
42 243 1
42 246 8
42 248 1
42 250 3
42 253 9
42 255 9
42 256 7
42 260 10
42 261 1
42 262 1
42 265 3
42 266 3
42 267 1
42 269 7
42 270 10
42 279 5
42 280 3
42 281 4
42 283 10
42 286 5
42 288 10
42 290 1
42 293 6
42 296 7
42 300 5
43 48 4
43 49 3
43 51 6
43 52 7
43 57 4
43 62 9
43 65 3
43 68 1
43 71 3
43 74 8
43 80 7
43 84 10
43 95 4
43 97 3
43 101 5
43 106 4
43 110 1
43 115 9
43 117 9
43 122 5
43 127 10
43 137 4
43 139 2
43 140 6
43 143 6
43 147 6
43 152 5
43 157 6
43 158 1
43 176 8
43 179 7
43 180 1
43 186 3
43 189 5
43 190 10
43 191 5
43 200 4
43 201 7
43 207 7
43 208 8
43 211 10
43 219 10
43 220 9
43 223 4
43 225 10
43 228 1
43 230 8
43 232 9
43 234 3
43 235 7
43 241 9
43 244 5
43 247 4
43 249 8
43 253 1
43 254 1
43 256 9
43 263 7
43 264 2
43 276 8
43 277 2
43 282 8
43 287 7
43 288 7
43 292 4
44 45 7
44 50 10
44 58 1
44 59 7
44 60 8
44 67 2
44 69 8
44 71 8
44 75 9
44 77 2
44 85 7
44 86 1
44 87 6
44 94 6
44 97 6
44 102 5
44 104 3
44 105 6
44 109 7
44 113 2
44 120 8
44 121 5
44 124 7
44 129 10
44 131 3
44 146 1
44 152 1
44 155 7
44 158 5
44 159 5
44 161 3
44 162 5
44 166 7
44 167 10
44 170 7
44 172 5
44 173 10
44 178 3
44 184 1
44 195 1
44 196 10
44 198 10
44 204 1
44 207 5
44 208 7
44 210 9
44 211 6
44 221 2
44 223 2
44 226 10
44 228 4
44 229 2
44 234 2
44 237 4
44 239 9
44 240 3
44 254 4
44 258 7
44 260 6
44 261 9
44 262 2
44 263 2
44 264 6
44 269 4
44 270 2
44 271 9
44 273 4
44 274 7
44 279 9
44 283 7
44 288 3
44 290 6
44 295 5
45 46 2
45 49 4
45 50 2
45 51 9
45 52 10
45 56 6
45 58 3
45 61 1
45 68 1
45 70 8
45 72 4
45 74 9
45 75 3
45 79 3
45 81 5
45 83 7
45 86 10
45 90 10
45 93 9
45 100 6
45 102 7
45 103 5
45 110 5
45 112 9
45 113 5
45 114 1
45 117 3
45 123 3
45 129 3
45 130 7
45 132 1
45 138 3
45 139 2
45 142 9
45 145 8
45 146 4
45 147 3
45 150 10
45 152 2
45 154 5
45 155 10
45 157 9
45 158 1
45 159 10
45 163 6
45 167 5
45 168 1
45 170 1
45 176 4
45 178 5
45 183 2
45 186 9
45 188 4
45 190 2
45 192 2
45 194 6
45 197 9
45 200 2
45 208 9
45 209 1
45 211 6
45 213 2
45 224 10
45 225 7
45 230 6
45 232 5
45 233 1
45 234 7
45 243 3
45 247 10
45 251 4
45 252 10
45 255 8
45 257 3
45 258 10
45 260 5
45 261 2
45 266 2
45 267 6
45 270 7
45 271 1
45 273 5
45 274 9
45 279 4
45 287 10
45 288 5
45 294 1
45 295 10
45 297 4
45 298 3
45 299 4
46 50 2
46 52 6
46 54 2
46 55 7
46 56 1
46 58 4
46 63 4
46 65 3
46 68 4
46 71 3
46 82 1
46 87 6
46 91 8
46 93 8
46 96 4
46 103 4
46 108 3
46 116 6
46 120 4
46 125 2
46 127 1
46 130 1
46 142 1
46 143 7
46 164 4
46 167 2
46 172 1
46 173 6
46 174 8
46 177 1
46 180 9
46 187 2
46 192 10
46 197 3
46 198 3
46 204 3
46 209 4
46 210 4
46 214 9
46 216 10
46 219 9
46 222 6
46 223 6
46 224 2
46 225 6
46 235 6
46 236 6
46 240 9
46 241 6
46 243 1
46 244 1
46 246 10
46 248 10
46 250 1
46 251 6
46 252 6
46 255 5
46 263 5
46 264 3
46 266 9
46 271 7
46 272 7
46 275 4
46 278 2
46 283 5
46 286 3
46 287 2
46 290 6
46 294 7
46 295 1
46 296 4
46 298 6
46 299 2
46 300 5
47 48 8
47 49 8
47 53 1
47 59 10
47 60 10
47 63 9
47 67 4
47 71 9
47 77 2
47 78 9
47 81 6
47 86 4
47 96 3
47 98 4
47 99 3
47 103 2
47 104 5
47 119 8
47 121 2
47 122 4
47 123 4
47 127 6
47 131 1
47 132 2
47 134 10
47 135 5
47 139 3
47 148 8
47 152 8
47 156 2
47 163 8
47 164 3
47 167 1
47 168 5
47 170 1
47 172 9
47 176 6
47 180 10
47 181 9
47 183 7
47 196 6
47 202 6
47 206 2
47 207 6
47 211 8
47 213 7
47 217 3
47 219 2
47 220 4
47 223 6
47 224 10
47 227 10
47 228 8
47 229 6
47 232 10
47 234 9
47 235 10
47 236 4
47 245 9
47 250 1
47 251 8
47 256 1
47 259 8
47 261 10
47 263 9
47 265 2
47 272 8
47 281 2
47 282 7
47 283 6
47 285 5
47 286 8
47 289 10
47 297 4
47 298 7
48 53 9
48 55 9
48 56 9
48 57 8
48 60 6
48 65 5
48 67 7
48 71 5
48 77 10
48 78 10
48 79 10
48 80 6
48 81 10
48 84 5
48 91 3
48 92 7
48 95 10
48 97 9
48 98 8
48 100 6
48 103 10
48 105 10
48 113 1
48 115 9
48 116 2
48 122 4
48 124 8
48 128 2
48 135 9
48 136 2
48 142 5
48 144 3
48 148 2
48 150 8
48 158 7
48 159 4
48 166 10
48 169 1
48 174 1
48 178 9
48 183 7
48 184 1
48 187 2
48 188 6
48 189 10
48 190 1
48 193 2
48 199 4
48 201 7
48 204 5
48 205 3
48 206 6
48 215 5
48 216 7
48 217 7
48 225 5
48 230 1
48 241 7
48 243 4
48 247 7
48 248 7
48 249 5
48 250 5
48 254 7
48 255 9
48 256 1
48 258 5
48 269 8
48 270 9
48 274 9
48 282 2
48 284 4
48 293 1
48 295 10
48 296 8
49 54 2
49 56 7
49 58 4
49 61 7
49 64 2
49 65 3
49 67 5
49 68 4
49 70 7
49 79 1
49 80 5
49 86 4
49 87 10
49 90 3
49 91 9
49 95 5
49 98 7
49 100 7
49 101 9
49 110 6
49 113 10
49 115 5
49 116 4
49 123 8
49 127 9
49 129 5
49 136 9
49 141 2
49 145 1
49 149 8
49 151 1
49 152 6
49 157 1
49 158 10
49 159 10
49 161 3
49 172 5
49 180 2
49 181 1
49 182 6
49 187 2
49 188 6
49 195 1
49 197 5
49 202 4
49 208 1
49 209 8
49 213 3
49 217 4
49 222 5
49 224 1
49 225 2
49 232 9
49 233 5
49 240 7
49 243 8
49 245 2
49 249 4
49 258 6
49 259 10
49 265 4
49 267 5
49 268 4
49 271 9
49 274 4
49 276 3
49 283 7
49 286 9
49 287 8
49 290 9
49 291 10
49 292 4
49 300 1
50 55 4
50 57 8
50 59 8
50 63 2
50 67 8
50 70 4
50 74 3
50 77 4
50 78 6
50 80 6
50 82 9
50 84 5
50 87 7
50 91 3
50 93 10
50 94 3
50 95 5
50 97 3
50 99 3
50 109 8
50 110 9
50 111 10
50 113 9
50 117 6
50 121 9
50 123 8
50 124 5
50 131 7
50 138 3
50 141 8
50 142 8
50 143 1
50 149 7
50 153 8
50 157 5
50 168 10
50 173 2
50 177 9
50 178 7
50 183 10
50 187 7
50 191 9
50 193 6
50 198 5
50 201 6
50 207 10
50 208 10
50 212 7
50 219 6
50 223 4
50 225 4
50 226 3
50 230 6
50 231 4
50 236 5
50 245 5
50 246 3
50 247 5
50 249 1
50 252 9
50 260 2
50 264 8
50 267 9
50 269 1
50 274 5
50 275 9
50 276 7
50 277 5
50 283 6
50 287 4
50 288 3
50 291 2
50 294 1
51 53 9
51 59 4
51 61 9
51 70 9
51 72 8
51 79 3
51 82 7
51 83 9
51 84 3
51 85 8
51 86 5
51 91 6
51 96 1
51 101 9
51 102 3
51 109 10
51 118 2
51 122 9
51 124 5
51 125 10
51 126 5
51 128 5
51 133 6
51 135 7
51 141 1
51 143 1
51 147 4
51 149 2
51 152 6
51 164 9
51 174 1
51 176 5
51 179 5
51 181 6
51 183 10
51 184 3
51 185 5
51 187 4
51 194 4
51 197 6
51 204 8
51 209 2
51 215 6
51 223 2
51 237 2
51 241 10
51 251 7
51 258 8
51 261 1
51 263 8
51 270 4
51 277 3
51 279 5
51 280 4
51 281 2
51 283 1
51 286 7
51 287 3
51 291 2
51 293 8
52 62 5
52 71 4
52 74 4
52 76 3
52 77 4
52 78 6
52 79 1
52 82 10
52 85 5
52 86 8
52 87 3
52 91 1
52 95 3
52 96 8
52 102 8
52 105 7
52 109 4
52 112 1
52 115 4
52 118 8
52 121 9
52 124 7
52 129 8
52 135 7
52 140 10
52 141 6
52 148 7
52 156 6
52 159 10
52 167 10
52 170 5
52 172 5
52 175 6
52 182 1
52 184 5
52 188 6
52 192 5
52 194 3
52 197 4
52 213 1
52 216 6
52 219 10
52 220 5
52 221 1
52 223 8
52 224 4
52 231 8
52 233 4
52 234 5
52 235 2
52 240 8
52 244 2
52 248 4
52 249 4
52 253 10
52 254 10
52 256 7
52 261 5
52 270 8
52 271 9
52 272 9
52 280 2
52 282 3
52 284 3
52 292 6
52 295 2
52 296 10
52 297 3
52 298 2
52 300 7
53 57 10
53 61 4
53 66 1
53 71 4
53 72 8
53 75 3
53 85 7
53 89 2
53 91 8
53 99 5
53 100 2
53 103 8
53 105 3
53 106 9
53 111 8
53 112 6
53 114 3
53 118 4
53 119 6
53 121 5
53 122 3
53 127 1
53 132 6
53 133 2
53 134 10
53 135 8
53 139 7
53 140 4
53 141 8
53 143 1
53 150 3
53 153 9
53 157 2
53 159 10
53 160 3
53 163 10
53 167 10
53 169 5
53 175 6
53 182 8
53 184 3
53 189 9
53 190 8
53 191 7
53 199 1
53 202 6
53 209 5
53 217 2
53 221 2
53 233 4
53 235 7
53 236 3
53 241 4
53 243 10
53 247 4
53 257 2
53 258 3
53 259 10
53 260 2
53 261 8
53 263 1
53 266 4
53 267 9
53 280 3
53 283 10
53 287 6
53 288 6
53 290 7
53 291 1
53 297 9
53 298 1
54 55 6
54 57 10
54 58 3
54 81 5
54 84 1
54 86 1
54 88 7
54 92 10
54 102 5
54 103 6
54 106 3
54 107 5
54 108 10
54 109 10
54 112 10
54 113 10
54 115 8
54 118 1
54 119 6
54 120 2
54 122 10
54 129 2
54 130 5
54 132 10
54 133 7
54 134 2
54 135 10
54 139 8
54 140 4
54 146 5
54 147 3
54 151 6
54 155 4
54 157 2
54 161 4
54 164 7
54 165 4
54 170 10
54 171 8
54 172 5
54 173 1
54 175 4
54 178 4
54 185 2
54 187 6
54 188 9
54 189 10
54 197 8
54 208 2
54 209 9
54 212 9
54 214 9
54 217 10
54 225 3
54 226 10
54 234 6
54 241 9
54 244 3
54 249 7
54 251 6
54 252 2
54 254 1
54 262 5
54 263 7
54 264 1
54 266 6
54 270 4
54 271 1
54 276 10
54 277 2
54 279 9
54 280 6
54 287 4
54 290 4
54 293 6
54 297 2
55 56 7
55 60 9
55 61 7
55 63 5
55 68 3
55 71 10
55 72 5
55 74 10
55 76 1
55 81 6
55 85 3
55 88 10
55 93 6
55 94 5
55 98 2
55 99 1
55 106 5
55 108 5
55 109 1
55 112 5
55 119 10
55 122 4
55 126 7
55 131 10
55 136 1
55 143 6
55 144 6
55 148 9
55 149 10
55 152 10
55 161 6
55 162 2
55 163 5
55 165 5
55 169 5
55 170 10
55 172 9
55 177 5
55 178 5
55 182 3
55 185 8
55 187 10
55 188 7
55 192 5
55 197 5
55 203 1
55 204 10
55 209 10
55 215 6
55 216 8
55 219 3
55 235 10
55 238 3
55 247 4
55 248 8
55 250 1
55 252 10
55 253 9
55 258 10
55 259 6
55 262 10
55 265 7
55 267 3
55 273 6
55 275 9
55 280 10
55 283 5
55 284 9
55 288 10
55 289 3
55 293 5
55 295 1
55 296 10
55 298 6
56 57 5
56 62 3
56 66 10
56 69 1
56 73 2
56 78 7
56 81 3
56 83 2
56 84 6
56 85 10
56 87 9
56 88 8
56 90 3
56 91 7
56 93 3
56 97 4
56 98 2
56 107 9
56 109 5
56 113 7
56 114 7
56 115 5
56 120 9
56 125 2
56 128 8
56 130 8
56 132 1
56 135 1
56 139 2
56 143 3
56 144 9
56 156 7
56 164 5
56 169 3
56 171 2
56 172 6
56 174 10
56 176 5
56 177 6
56 178 8
56 186 2
56 192 6
56 200 4
56 201 6
56 206 1
56 207 2
56 208 8
56 209 10
56 210 4
56 211 9
56 217 1
56 222 2
56 223 9
56 226 10
56 231 5
56 233 3
56 237 6
56 242 2
56 244 5
56 246 9
56 247 7
56 248 6
56 250 2
56 251 5
56 253 2
56 271 5
56 273 7
56 275 5
56 279 3
56 282 10
56 283 1
56 286 5
56 287 10
56 290 2
56 292 10
56 298 4
56 300 4
57 60 7
57 64 3
57 65 10
57 72 1
57 74 9
57 75 9
57 77 5
57 82 1
57 88 6
57 90 2
57 94 7
57 96 3
57 105 7
57 112 6
57 113 6
57 119 8
57 124 9
57 127 5
57 129 7
57 130 6
57 132 8
57 137 5
57 140 7
57 141 6
57 149 6
57 154 4
57 156 1
57 160 2
57 161 6
57 170 4
57 174 5
57 176 3
57 178 10
57 180 9
57 182 2
57 190 10
57 191 6
57 192 3
57 194 7
57 195 2
57 196 10
57 200 3
57 203 2
57 209 3
57 211 10
57 213 9
57 215 7
57 217 10
57 219 6
57 220 8
57 222 9
57 225 2
57 229 10
57 231 7
57 236 9
57 238 7
57 239 6
57 242 9
57 243 5
57 250 8
57 252 7
57 258 7
57 260 6
57 265 5
57 266 7
57 268 9
57 269 5
57 274 8
57 277 9
57 278 8
57 280 7
57 281 3
57 283 5
57 284 7
57 285 2
57 288 7
57 294 6
57 296 8
57 297 1
57 299 7
58 64 2
58 65 1
58 68 10
58 69 3
58 70 3
58 79 10
58 80 2
58 82 2
58 83 1
58 84 3
58 86 1
58 92 9
58 98 6
58 100 1
58 103 4
58 107 9
58 109 6
58 110 10
58 111 9
58 112 4
58 113 5
58 115 4
58 116 6
58 118 3
58 121 10
58 122 2
58 128 10
58 134 2
58 135 7
58 136 9
58 137 9
58 146 2
58 150 7
58 155 3
58 156 7
58 164 10
58 168 7
58 169 2
58 170 2
58 173 5
58 175 10
58 176 3
58 177 1
58 191 1
58 198 6
58 203 10
58 206 2
58 210 9
58 214 4
58 216 7
58 218 10
58 219 5
58 220 8
58 223 6
58 224 5
58 226 5
58 232 9
58 235 6
58 241 9
58 244 3
58 245 6
58 247 5
58 251 9
58 257 7
58 259 3
58 261 9
58 264 10
58 265 5
58 267 6
58 271 10
58 272 6
58 277 5
58 278 5
58 280 4
58 286 9
58 292 9
59 62 9
59 63 1
59 64 9
59 65 1
59 67 10
59 76 1
59 77 1
59 79 2
59 83 10
59 85 8
59 89 2
59 93 7
59 95 8
59 99 10
59 103 10
59 104 3
59 110 10
59 111 4
59 115 7
59 120 1
59 121 10
59 139 7
59 140 9
59 148 1
59 154 3
59 156 9
59 160 5
59 161 9
59 166 8
59 182 7
59 184 6
59 195 10
59 197 1
59 198 5
59 199 9
59 202 8
59 212 6
59 229 9
59 233 10
59 236 1
59 237 5
59 242 5
59 252 9
59 253 9
59 254 10
59 257 3
59 258 8
59 260 6
59 264 3
59 267 2
59 268 5
59 272 4
59 293 8
59 298 4
60 61 3
60 63 10
60 64 10
60 65 5
60 66 6
60 67 8
60 70 9
60 72 8
60 73 7
60 77 4
60 80 9
60 81 2
60 85 2
60 87 5
60 88 5
60 89 10
60 100 9
60 101 9
60 103 7
60 115 6
60 117 1
60 118 7
60 123 1
60 124 6
60 125 8
60 133 1
60 136 5
60 143 4
60 155 9
60 158 9
60 159 8
60 162 3
60 168 5
60 171 4
60 172 5
60 175 5
60 178 4
60 182 1
60 187 4
60 190 2
60 191 1
60 192 4
60 193 9
60 197 7
60 203 4
60 204 6
60 205 10
60 207 5
60 215 4
60 218 9
60 220 10
60 223 3
60 230 10
60 234 5
60 236 3
60 239 3
60 240 9
60 241 2
60 242 5
60 249 9
60 253 6
60 255 3
60 257 10
60 259 4
60 266 7
60 267 8
60 271 10
60 272 9
60 274 6
60 276 4
60 277 3
60 280 6
60 282 7
60 291 3
60 292 3
60 296 6
60 299 8
61 65 1
61 69 3
61 78 5
61 88 5
61 90 1
61 91 5
61 92 1
61 93 4
61 95 4
61 97 10
61 98 4
61 101 7
61 103 7
61 105 9
61 109 7
61 117 4
61 119 8
61 123 1
61 129 10
61 131 6
61 135 1
61 149 8
61 152 8
61 153 3
61 154 7
61 155 7
61 156 6
61 166 9
61 168 1
61 170 7
61 172 7
61 174 10
61 177 2
61 178 2
61 182 1
61 186 8
61 192 2
61 201 5
61 205 9
61 206 6
61 209 10
61 213 7
61 215 7
61 218 4
61 221 8
61 223 7
61 225 7
61 230 8
61 233 9
61 236 6
61 242 8
61 243 6
61 245 1
61 246 5
61 250 6
61 255 7
61 258 1
61 260 7
61 262 4
61 263 6
61 269 5
61 277 2
61 278 3
61 286 10
61 287 5
61 290 9
61 294 1
61 296 1
62 67 6
62 75 5
62 76 10
62 77 5
62 78 7
62 79 8
62 80 2
62 82 2
62 88 10
62 90 6
62 92 1
62 93 6
62 96 5
62 97 9
62 98 10
62 102 4
62 108 4
62 114 7
62 119 8
62 122 8
62 123 8
62 126 4
62 128 4
62 133 2
62 134 4
62 136 3
62 139 1
62 142 5
62 145 10
62 146 2
62 149 2
62 150 8
62 156 4
62 162 2
62 163 3
62 165 3
62 166 10
62 168 6
62 170 5
62 171 7
62 173 6
62 175 3
62 183 7
62 184 9
62 186 9
62 191 4
62 193 9
62 195 10
62 196 3
62 197 5
62 198 1
62 202 7
62 204 8
62 208 5
62 209 1
62 211 6
62 219 4
62 221 7
62 223 9
62 226 9
62 229 5
62 232 4
62 234 2
62 238 2
62 244 5
62 246 7
62 247 10
62 250 9
62 252 9
62 255 10
62 256 4
62 259 7
62 263 3
62 266 9
62 267 10
62 268 1
62 269 5
62 276 6
62 277 6
62 278 4
62 280 8
62 281 1
62 282 8
62 284 2
62 285 1
62 287 7
62 288 5
62 292 3
62 295 4
63 72 7
63 74 8
63 76 2
63 79 2
63 80 2
63 83 9
63 85 2
63 87 2
63 91 3
63 92 5
63 104 4
63 105 1
63 109 9
63 112 8
63 117 5
63 122 8
63 128 4
63 129 8
63 138 3
63 139 10
63 146 4
63 154 5
63 156 7
63 158 4
63 161 1
63 165 1
63 167 2
63 168 8
63 171 7
63 174 9
63 176 6
63 177 2
63 181 1
63 183 5
63 184 4
63 185 2
63 186 1
63 190 1
63 191 7
63 192 3
63 194 7
63 195 4
63 197 6
63 199 6
63 200 5
63 203 10
63 204 7
63 205 9
63 206 4
63 216 8
63 219 3
63 223 10
63 228 3
63 234 10
63 236 2
63 239 10
63 240 2
63 241 5
63 243 3
63 247 2
63 250 6
63 254 10
63 256 4
63 258 4
63 261 2
63 264 6
63 266 3
63 274 1
63 279 4
63 281 1
63 283 1
63 291 4
63 294 7
63 299 1
64 67 4
64 68 9
64 71 1
64 76 9
64 78 6
64 81 6
64 82 3
64 83 4
64 92 3
64 94 8
64 104 8
64 106 10
64 107 3
64 109 6
64 113 2
64 118 3
64 120 7
64 124 8
64 125 8
64 141 8
64 154 7
64 157 6
64 161 6
64 165 6
64 166 2
64 174 5
64 178 10
64 189 6
64 190 8
64 192 5
64 200 2
64 203 7
64 205 7
64 210 10
64 212 8
64 215 8
64 218 10
64 219 5
64 223 1
64 236 10
64 241 7
64 244 7
64 247 7
64 251 6
64 256 6
64 261 10
64 270 4
64 274 7
64 278 5
64 279 4
64 280 6
64 281 1
64 283 10
64 287 5
64 292 6
64 298 6
65 68 8
65 78 2
65 88 7
65 89 4
65 93 2
65 103 4
65 104 3
65 106 2
65 108 9
65 109 2
65 112 8
65 118 1
65 119 6
65 120 6
65 123 6
65 128 7
65 129 2
65 131 5
65 133 5
65 134 6
65 136 8
65 138 3
65 143 1
65 153 4
65 157 9
65 162 7
65 167 7
65 173 6
65 178 3
65 179 2
65 181 2
65 183 7
65 187 5
65 190 9
65 191 9
65 193 6
65 195 4
65 197 5
65 208 6
65 210 10
65 212 7
65 221 5
65 223 9
65 228 2
65 231 3
65 232 1
65 239 6
65 240 10
65 242 5
65 244 10
65 247 10
65 250 4
65 251 4
65 255 2
65 257 3
65 259 6
65 260 4
65 264 7
65 265 4
65 270 4
65 272 9
65 277 3
65 280 7
65 286 4
65 288 10
65 292 10
65 293 8
65 296 6
66 67 9
66 69 3
66 70 10
66 71 8
66 75 8
66 84 10
66 87 10
66 88 5
66 91 4
66 92 8
66 95 7
66 99 10
66 100 10
66 110 6
66 122 2
66 126 3
66 134 10
66 138 6
66 145 5
66 146 2
66 147 9
66 148 10
66 151 10
66 152 2
66 154 7
66 156 9
66 157 4
66 159 4
66 160 6
66 161 9
66 164 4
66 167 10
66 169 9
66 175 10
66 177 9
66 179 7
66 190 6
66 196 6
66 202 7
66 206 5
66 212 4
66 213 2
66 215 7
66 216 3
66 217 5
66 218 5
66 225 5
66 227 1
66 231 3
66 235 9
66 240 10
66 244 7
66 245 9
66 249 8
66 250 6
66 251 1
66 253 5
66 256 2
66 263 2
66 264 5
66 270 9
66 272 7
66 281 4
66 289 2
66 292 4
66 296 7
67 72 7
67 75 1
67 76 7
67 77 4
67 82 8
67 86 7
67 88 1
67 94 9
67 95 10
67 101 7
67 104 10
67 110 3
67 113 2
67 116 8
67 120 1
67 124 9
67 126 4
67 127 6
67 130 5
67 133 9
67 136 10
67 139 1
67 153 7
67 160 7
67 170 10
67 172 3
67 175 7
67 176 2
67 179 10
67 180 8
67 185 8
67 187 5
67 193 3
67 194 10
67 197 6
67 198 2
67 200 10
67 202 3
67 203 8
67 204 8
67 207 7
67 213 9
67 215 7
67 222 10
67 224 4
67 228 2
67 232 1
67 234 3
67 237 9
67 238 10
67 244 5
67 250 3
67 254 1
67 255 10
67 258 5
67 260 5
67 261 5
67 264 3
67 267 3
67 279 4
67 282 10
67 285 1
67 289 8
67 294 7
67 297 9
67 300 5
68 70 6
68 71 9
68 74 10
68 75 2
68 77 4
68 78 6
68 83 4
68 85 5
68 86 10
68 96 3
68 99 7
68 100 9
68 101 5
68 102 7
68 104 1
68 105 2
68 107 4
68 113 9
68 115 3
68 123 7
68 124 3
68 126 7
68 131 10
68 132 10
68 134 6
68 138 6
68 139 7
68 140 7
68 141 2
68 142 5
68 143 3
68 151 4
68 152 5
68 154 6
68 160 2
68 167 9
68 169 10
68 173 10
68 174 1
68 176 4
68 178 10
68 181 10
68 184 5
68 189 2
68 191 10
68 197 7
68 202 6
68 203 6
68 209 3
68 213 9
68 215 7
68 220 7
68 222 2
68 226 5
68 229 2
68 232 2
68 233 8
68 236 7
68 238 4
68 239 7
68 242 2
68 247 8
68 256 7
68 257 1
68 258 8
68 259 5
68 265 8
68 267 5
68 269 5
68 271 1
68 272 10
68 275 6
68 278 1
68 279 3
68 284 4
68 293 8
68 295 4
69 72 8
69 75 8
69 77 9
69 85 9
69 87 5
69 88 5
69 90 5
69 91 6
69 93 3
69 94 4
69 97 6
69 98 5
69 99 10
69 103 8
69 105 2
69 109 3
69 110 1
69 111 4
69 117 9
69 120 7
69 121 2
69 124 10
69 128 1
69 134 10
69 138 2
69 143 5
69 144 1
69 145 2
69 147 2
69 153 6
69 154 5
69 157 8
69 159 3
69 164 9
69 172 8
69 176 8
69 189 7
69 191 3
69 193 1
69 195 9
69 196 5
69 197 5
69 200 4
69 204 4
69 212 3
69 214 2
69 217 6
69 219 8
69 222 2
69 224 2
69 225 8
69 226 6
69 227 3
69 228 3
69 231 4
69 233 4
69 238 9
69 243 4
69 244 5
69 249 9
69 252 1
69 256 8
69 257 1
69 261 5
69 265 6
69 266 4
69 268 8
69 269 10
69 271 1
69 272 9
69 274 4
69 275 10
69 279 4
69 283 3
69 285 7
69 286 10
69 287 6
69 292 5
69 293 2
69 296 1
69 297 5
69 298 2
69 299 6
70 76 3
70 81 7
70 96 6
70 99 2
70 106 6
70 119 9
70 121 3
70 122 1
70 124 3
70 131 6
70 138 8
70 140 3
70 142 3
70 143 7
70 145 10
70 147 10
70 148 6
70 149 10
70 154 4
70 161 5
70 165 9
70 169 9
70 175 2
70 181 7
70 183 4
70 186 4
70 189 10
70 196 4
70 197 10
70 204 2
70 211 1
70 219 9
70 220 2
70 221 5
70 222 6
70 223 8
70 226 5
70 227 1
70 238 7
70 241 7
70 247 6
70 248 5
70 255 9
70 257 10
70 258 5
70 260 2
70 262 4
70 263 2
70 266 6
70 269 2
70 270 5
70 274 1
70 281 6
70 289 8
70 293 10
70 294 3
71 74 3
71 78 4
71 82 7
71 88 9
71 92 7
71 93 10
71 94 8
71 98 2
71 100 10
71 104 4
71 108 9
71 110 7
71 117 9
71 120 10
71 123 7
71 124 3
71 127 1
71 129 4
71 134 3
71 137 4
71 138 5
71 140 7
71 143 7
71 145 1
71 146 1
71 148 7
71 149 7
71 151 3
71 155 9
71 156 3
71 161 1
71 162 8
71 165 7
71 166 10
71 172 6
71 178 10
71 181 6
71 182 3
71 184 10
71 186 4
71 197 7
71 203 10
71 215 2
71 219 9
71 221 4
71 230 5
71 232 4
71 234 9
71 236 1
71 238 10
71 240 6
71 241 9
71 242 8
71 246 10
71 247 8
71 249 1
71 251 6
71 253 9
71 254 4
71 255 5
71 256 10
71 258 9
71 259 3
71 262 1
71 266 3
71 268 4
71 272 7
71 274 4
71 275 7
71 278 4
71 284 1
71 286 3
71 290 8
71 292 9
71 295 7
71 296 8
71 300 9
72 75 9
72 76 4
72 78 6
72 79 7
72 85 1
72 87 7
72 89 10
72 90 2
72 93 7
72 95 9
72 98 7
72 102 6
72 105 4
72 112 6
72 116 2
72 117 2
72 119 2
72 123 7
72 125 4
72 127 7
72 128 6
72 129 5
72 130 2
72 133 10
72 135 3
72 136 10
72 139 9
72 140 10
72 141 10
72 143 2
72 144 6
72 146 4
72 147 10
72 151 4
72 152 2
72 154 10
72 158 8
72 159 4
72 165 7
72 171 9
72 175 5
72 181 6
72 186 2
72 189 2
72 194 10
72 195 9
72 197 7
72 200 2
72 202 10
72 203 5
72 204 9
72 205 4
72 207 2
72 214 5
72 224 6
72 227 3
72 234 6
72 235 4
72 237 1
72 238 4
72 240 9
72 246 2
72 250 3
72 258 4
72 260 8
72 265 7
72 266 6
72 267 10
72 269 2
72 270 1
72 271 9
72 274 1
72 278 10
72 281 3
72 282 7
72 290 7
72 294 6
72 298 1
72 299 4
72 300 4
73 75 1
73 77 9
73 78 4
73 79 6
73 80 5
73 82 8
73 83 1
73 90 9
73 91 4
73 97 10
73 98 7
73 99 7
73 100 6
73 108 5
73 109 9
73 120 8
73 123 4
73 127 9
73 131 8
73 141 4
73 146 2
73 147 8
73 150 10
73 151 4
73 158 10
73 159 4
73 163 9
73 165 7
73 171 7
73 174 7
73 175 10
73 176 3
73 177 9
73 182 10
73 186 7
73 187 8
73 188 2
73 193 7
73 194 4
73 197 3
73 208 6
73 212 4
73 214 5
73 219 9
73 221 5
73 225 5
73 229 6
73 230 2
73 236 8
73 238 2
73 240 8
73 241 4
73 242 1
73 247 5
73 254 7
73 256 2
73 260 4
73 261 9
73 263 9
73 265 5
73 274 2
73 275 3
73 276 8
73 278 9
73 280 2
73 281 2
73 284 7
73 285 9
73 290 7
73 294 6
73 295 7
73 297 6
74 81 10
74 83 8
74 91 2
74 93 4
74 106 1
74 107 7
74 111 6
74 112 10
74 113 3
74 114 2
74 118 3
74 120 7
74 122 6
74 123 6
74 126 1
74 136 5
74 138 1
74 139 4
74 140 7
74 142 10
74 148 10
74 153 9
74 156 3
74 157 2
74 166 9
74 168 10
74 169 5
74 175 7
74 179 2
74 182 9
74 183 8
74 185 2
74 188 4
74 192 10
74 193 2
74 194 1
74 196 2
74 198 4
74 199 4
74 201 5
74 208 1
74 209 10
74 212 10
74 227 7
74 231 8
74 232 9
74 233 3
74 241 3
74 246 1
74 259 5
74 267 9
74 268 10
74 269 7
74 271 9
74 274 8
74 278 7
74 280 8
74 287 3
74 288 2
74 295 5
74 296 10
74 297 4
75 81 4
75 82 1
75 88 5
75 89 2
75 95 3
75 96 4
75 97 4
75 99 10
75 101 6
75 106 1
75 110 10
75 113 5
75 116 1
75 117 2
75 120 3
75 127 7
75 131 3
75 134 3
75 136 1
75 137 1
75 139 8
75 140 5
75 141 7
75 143 5
75 144 4
75 151 9
75 152 6
75 154 5
75 161 6
75 174 5
75 183 10
75 184 8
75 188 8
75 191 1
75 193 10
75 195 5
75 197 5
75 199 7
75 202 9
75 204 9
75 206 5
75 208 5
75 210 1
75 216 10
75 217 7
75 218 7
75 223 10
75 230 10
75 240 10
75 242 1
75 243 1
75 248 7
75 253 5
75 257 8
75 262 9
75 266 9
75 267 2
75 268 10
75 270 7
75 272 7
75 274 9
75 276 10
75 277 7
75 278 5
75 279 9
75 280 5
75 282 10
75 286 9
75 290 10
75 291 5
76 79 7
76 90 8
76 91 6
76 99 1
76 100 3
76 101 9
76 104 10
76 105 1
76 117 2
76 125 1
76 126 2
76 131 7
76 138 2
76 140 3
76 149 8
76 155 6
76 160 9
76 163 8
76 166 4
76 170 5
76 173 9
76 178 4
76 182 6
76 186 2
76 188 4
76 189 7
76 190 3
76 193 8
76 194 9
76 201 4
76 204 5
76 206 4
76 209 2
76 213 3
76 220 4
76 229 4
76 230 3
76 234 10
76 237 1
76 241 1
76 247 5
76 250 7
76 252 4
76 253 2
76 254 1
76 255 1
76 256 6
76 257 6
76 266 3
76 272 3
76 281 9
76 282 2
76 283 9
76 284 2
76 286 6
76 289 6
76 290 10
76 294 6
76 299 2
76 300 6
77 82 2
77 83 5
77 86 9
77 88 5
77 90 6
77 92 10
77 98 9
77 101 6
77 103 8
77 111 4
77 114 1
77 115 3
77 118 1
77 122 10
77 133 7
77 134 1
77 135 8
77 139 4
77 141 10
77 143 5
77 146 1
77 147 9
77 153 7
77 155 4
77 157 2
77 167 8
77 169 6
77 174 1
77 179 9
77 180 9
77 182 2
77 183 6
77 184 9
77 188 5
77 192 6
77 196 1
77 197 2
77 198 8
77 203 3
77 204 5
77 210 2
77 211 9
77 213 4
77 223 9
77 226 3
77 234 6
77 236 6
77 237 3
77 250 7
77 254 10
77 258 2
77 259 7
77 260 9
77 262 2
77 265 2
77 266 6
77 277 2
77 278 2
77 279 3
77 287 10
77 290 10
77 291 10
77 293 10
77 294 7
77 297 1
77 298 5
78 81 5
78 86 4
78 87 8
78 94 2
78 102 7
78 104 5
78 107 5
78 108 2
78 110 9
78 113 8
78 115 1
78 117 10
78 119 10
78 126 6
78 127 3
78 138 1
78 142 1
78 144 6
78 145 10
78 152 8
78 153 7
78 156 2
78 157 10
78 158 6
78 159 6
78 160 6
78 165 8
78 167 5
78 169 10
78 172 9
78 177 8
78 183 3
78 185 9
78 187 1
78 188 5
78 191 3
78 192 9
78 199 4
78 200 6
78 202 1
78 203 5
78 204 6
78 205 6
78 207 5
78 213 2
78 214 7
78 220 7
78 228 2
78 231 6
78 232 6
78 237 8
78 238 4
78 243 8
78 246 4
78 247 6
78 248 5
78 252 4
78 254 5
78 262 10
78 264 8
78 269 5
78 274 2
78 275 8
78 276 8
78 278 6
78 279 5
78 280 10
78 285 7
78 287 5
78 294 2
78 295 5
78 296 2
78 297 6
78 299 5
78 300 8
79 83 1
79 86 4
79 89 2
79 92 8
79 99 1
79 100 5
79 109 10
79 112 2
79 127 1
79 133 8
79 134 8
79 135 3
79 140 1
79 143 1
79 144 7
79 145 9
79 146 9
79 148 2
79 150 4
79 153 5
79 154 7
79 161 3
79 167 9
79 170 2
79 175 7
79 177 5
79 179 6
79 181 10
79 183 6
79 188 4
79 189 8
79 190 6
79 192 4
79 200 10
79 201 6
79 202 1
79 205 8
79 206 6
79 209 1
79 210 10
79 215 1
79 216 3
79 217 8
79 222 4
79 223 7
79 225 8
79 230 1
79 232 1
79 233 5
79 236 2
79 239 9
79 241 5
79 242 6
79 243 7
79 244 8
79 248 9
79 250 4
79 252 2
79 254 3
79 261 4
79 267 10
79 269 7
79 271 3
79 273 1
79 284 7
79 289 2
79 290 2
79 291 4
79 296 10
79 297 2
80 85 2
80 89 6
80 94 5
80 98 4
80 106 8
80 108 4
80 109 4
80 110 8
80 112 10
80 116 10
80 122 5
80 123 8
80 126 1
80 131 10
80 137 4
80 139 3
80 147 3
80 148 1
80 152 5
80 153 8
80 154 5
80 155 10
80 160 8
80 162 9
80 165 1
80 170 4
80 171 6
80 174 2
80 177 7
80 178 1
80 179 5
80 182 7
80 183 1
80 185 8
80 187 9
80 194 4
80 196 9
80 197 3
80 203 9
80 213 8
80 215 4
80 218 9
80 222 9
80 223 2
80 224 3
80 225 7
80 226 1
80 234 9
80 236 3
80 237 8
80 238 10
80 244 8
80 248 10
80 250 9
80 251 4
80 253 5
80 257 9
80 258 5
80 263 5
80 266 7
80 275 8
80 277 3
80 278 7
80 282 7
80 283 8
80 289 8
80 290 10
80 292 7
80 293 8
80 294 1
80 300 4
81 91 3
81 95 6
81 99 8
81 109 2
81 112 5
81 113 7
81 116 5
81 124 6
81 125 2
81 134 5
81 137 2
81 155 4
81 158 3
81 160 3
81 164 7
81 165 7
81 171 6
81 172 2
81 175 1
81 177 1
81 179 3
81 180 8
81 182 9
81 184 3
81 189 7
81 190 6
81 194 1
81 195 1
81 197 3
81 200 6
81 201 3
81 202 6
81 215 5
81 216 7
81 219 9
81 220 6
81 224 9
81 226 1
81 229 2
81 233 2
81 234 4
81 242 5
81 244 5
81 246 6
81 249 2
81 255 5
81 257 8
81 262 3
81 263 8
81 266 4
81 268 1
81 272 4
81 275 9
81 282 1
81 287 4
81 289 5
81 290 6
81 293 1
81 295 8
81 300 4
82 83 4
82 88 3
82 95 4
82 101 10
82 102 10
82 103 9
82 105 7
82 107 1
82 110 9
82 111 3
82 124 3
82 127 1
82 137 4
82 138 10
82 141 5
82 142 8
82 144 5
82 147 2
82 151 8
82 154 3
82 161 8
82 164 9
82 171 6
82 175 5
82 179 8
82 180 7
82 181 3
82 185 4
82 193 5
82 194 2
82 200 2
82 202 7
82 204 4
82 205 9
82 206 4
82 215 3
82 217 8
82 218 1
82 230 4
82 231 1
82 232 5
82 233 2
82 234 1
82 238 6
82 239 9
82 240 1
82 243 7
82 245 7
82 251 8
82 252 6
82 254 6
82 256 5
82 257 6
82 260 3
82 270 8
82 272 1
82 274 7
82 276 1
82 277 4
82 279 6
82 280 2
82 281 9
82 283 8
82 284 8
82 292 7
82 296 6
82 297 1
82 299 9
82 300 6
83 88 9
83 94 3
83 95 8
83 96 4
83 97 3
83 100 4
83 103 6
83 112 3
83 115 6
83 120 7
83 121 8
83 122 4
83 124 4
83 130 5
83 131 2
83 133 4
83 138 10
83 139 1
83 142 1
83 143 5
83 145 7
83 147 3
83 148 10
83 149 6
83 150 8
83 152 3
83 156 9
83 158 2
83 169 6
83 170 2
83 171 9
83 174 9
83 176 3
83 178 7
83 187 6
83 190 10
83 194 8
83 198 2
83 201 3
83 202 6
83 205 4
83 206 7
83 209 5
83 211 10
83 212 8
83 215 9
83 218 2
83 219 4
83 221 6
83 224 3
83 228 5
83 229 8
83 230 7
83 231 10
83 233 7
83 235 5
83 236 2
83 247 2
83 249 4
83 250 10
83 255 7
83 261 5
83 268 6
83 269 5
83 274 10
83 276 1
83 277 9
83 279 7
83 280 4
83 283 6
83 288 6
83 289 5
83 292 7
83 296 8
83 299 2
84 90 5
84 91 1
84 93 5
84 98 3
84 99 2
84 100 4
84 103 10
84 105 3
84 108 8
84 115 5
84 123 9
84 124 8
84 128 2
84 129 1
84 133 1
84 136 3
84 137 10
84 138 8
84 150 2
84 151 6
84 159 9
84 160 2
84 166 9
84 169 4
84 170 8
84 173 4
84 174 8
84 179 1
84 181 7
84 185 3
84 198 9
84 200 6
84 201 6
84 202 5
84 208 1
84 209 4
84 210 7
84 212 5
84 221 9
84 222 7
84 224 3
84 227 7
84 228 1
84 232 7
84 233 10
84 234 2
84 239 8
84 243 3
84 249 2
84 252 6
84 262 10
84 266 8
84 268 10
84 279 9
84 281 10
84 283 1
84 285 7
84 290 2
84 295 2
84 298 5
84 300 3
85 87 6
85 89 8
85 91 9
85 92 2
85 94 1
85 98 10
85 100 5
85 105 1
85 106 10
85 114 9
85 116 7
85 118 8
85 124 7
85 126 1
85 127 6
85 128 8
85 129 6
85 131 8
85 133 1
85 135 9
85 136 2
85 138 4
85 141 9
85 142 8
85 145 9
85 149 1
85 151 2
85 155 10
85 163 2
85 172 8
85 174 7
85 178 3
85 180 2
85 184 1
85 186 3
85 187 2
85 188 8
85 196 3
85 199 7
85 206 7
85 209 4
85 211 10
85 214 1
85 226 9
85 230 7
85 232 4
85 241 1
85 246 10
85 252 4
85 254 10
85 258 8
85 260 5
85 262 1
85 266 5
85 274 9
85 276 5
85 277 6
85 279 10
85 281 2
85 283 1
85 286 4
85 293 6
85 295 6
85 296 10
86 87 5
86 91 10
86 96 5
86 97 8
86 101 3
86 102 6
86 103 9
86 107 9
86 110 4
86 113 4
86 114 1
86 119 10
86 120 8
86 122 5
86 127 10
86 128 3
86 130 2
86 134 10
86 135 9
86 137 9
86 138 1
86 140 3
86 141 2
86 143 3
86 145 1
86 152 9
86 153 10
86 154 2
86 158 1
86 159 2
86 160 9
86 164 9
86 173 5
86 177 8
86 184 8
86 191 7
86 193 2
86 196 4
86 197 5
86 199 2
86 200 6
86 201 6
86 209 3
86 211 1
86 213 8
86 215 10
86 217 4
86 219 1
86 224 2
86 230 7
86 235 6
86 239 6
86 243 3
86 245 8
86 246 6
86 249 9
86 254 7
86 261 10
86 263 8
86 265 5
86 266 1
86 269 7
86 270 10
86 272 10
86 273 10
86 280 8
86 285 7
86 290 7
86 293 4
87 88 8
87 90 2
87 91 9
87 94 2
87 96 9
87 98 9
87 103 3
87 107 2
87 116 10
87 117 2
87 121 3
87 122 9
87 129 3
87 132 3
87 133 5
87 139 5
87 141 5
87 144 2
87 145 3
87 147 8
87 154 8
87 155 7
87 167 2
87 170 2
87 171 3
87 172 4
87 177 5
87 179 10
87 182 9
87 188 4
87 190 7
87 191 7
87 201 5
87 203 4
87 205 7
87 207 6
87 213 3
87 214 10
87 222 9
87 225 8
87 230 6
87 231 3
87 232 3
87 235 6
87 236 5
87 238 9
87 242 8
87 245 6
87 248 10
87 251 2
87 254 8
87 255 1
87 257 6
87 260 8
87 261 5
87 262 2
87 263 1
87 264 3
87 267 9
87 274 7
87 276 6
87 279 3
87 280 5
87 284 3
87 286 7
87 288 9
87 292 8
87 294 2
87 296 6
87 298 8
87 299 2
88 89 8
88 94 3
88 96 7
88 97 2
88 98 6
88 101 8
88 106 10
88 107 8
88 108 7
88 109 1
88 122 10
88 128 7
88 130 4
88 133 1
88 136 8
88 142 10
88 143 7
88 144 3
88 146 6
88 153 2
88 155 8
88 164 4
88 165 6
88 166 8
88 168 2
88 171 3
88 178 9
88 179 2
88 180 10
88 184 4
88 185 7
88 187 1
88 188 7
88 193 8
88 196 7
88 197 2
88 200 4
88 202 4
88 204 7
88 209 10
88 210 8
88 213 6
88 214 1
88 217 2
88 219 3
88 221 6
88 226 9
88 227 4
88 229 3
88 234 5
88 236 6
88 237 4
88 239 9
88 242 6
88 249 10
88 251 1
88 252 7
88 255 4
88 257 9
88 266 4
88 268 10
88 279 5
88 280 1
88 282 7
88 284 6
88 285 8
88 293 4
88 294 8
88 299 3
88 300 7
89 94 1
89 99 4
89 101 1
89 102 10
89 105 5
89 108 2
89 109 5
89 110 6
89 114 3
89 115 8
89 118 3
89 124 6
89 127 4
89 138 9
89 144 10
89 148 4
89 152 1
89 156 1
89 157 1
89 163 10
89 170 6
89 171 9
89 176 10
89 180 7
89 181 8
89 184 7
89 185 1
89 186 6
89 190 7
89 195 9
89 200 2
89 203 9
89 204 1
89 205 7
89 206 7
89 208 4
89 210 10
89 211 5
89 212 8
89 213 4
89 214 3
89 215 5
89 217 1
89 219 4
89 233 2
89 234 9
89 238 1
89 239 5
89 242 5
89 244 3
89 245 2
89 247 3
89 250 4
89 251 4
89 259 10
89 261 10
89 262 7
89 263 6
89 266 6
89 267 2
89 269 1
89 271 10
89 272 3
89 275 3
89 277 5
89 280 10
89 284 2
89 288 2
89 291 6
89 294 9
89 295 6
89 298 5
89 299 1
90 94 2
90 100 7
90 101 10
90 104 5
90 105 4
90 107 9
90 111 9
90 115 10
90 119 1
90 120 7
90 121 4
90 124 9
90 130 6
90 133 5
90 136 9
90 141 7
90 146 7
90 151 4
90 154 10
90 155 9
90 157 6
90 158 3
90 159 7
90 161 5
90 169 2
90 171 5
90 172 10
90 173 2
90 178 1
90 181 6
90 182 5
90 184 5
90 187 5
90 206 5
90 210 8
90 216 4
90 218 7
90 230 1
90 233 9
90 234 9
90 237 8
90 238 2
90 240 5
90 242 5
90 247 10
90 249 10
90 257 1
90 258 3
90 264 1
90 265 10
90 266 3
90 267 8
90 268 5
90 272 9
90 273 10
90 278 10
90 281 9
90 287 10
90 295 5
90 296 4
90 299 3
90 300 4
91 101 6
91 106 7
91 107 6
91 115 8
91 124 2
91 125 1
91 126 3
91 128 5
91 131 7
91 132 9
91 137 10
91 138 10
91 139 3
91 142 3
91 144 9
91 145 5
91 149 9
91 153 5
91 155 1
91 158 5
91 162 1
91 164 2
91 166 5
91 169 1
91 170 8
91 175 10
91 176 2
91 184 7
91 189 3
91 195 10
91 197 2
91 199 4
91 200 9
91 207 2
91 210 6
91 211 8
91 215 4
91 216 5
91 220 7
91 221 6
91 223 6
91 226 6
91 227 3
91 229 7
91 231 10
91 233 10
91 235 3
91 236 2
91 237 4
91 238 8
91 240 4
91 245 10
91 247 2
91 254 5
91 255 1
91 259 10
91 263 8
91 270 7
91 271 10
91 275 8
91 276 1
91 277 1
91 280 2
91 285 1
91 286 6
91 289 2
91 290 9
91 291 7
91 292 9
92 102 6
92 104 2
92 107 2
92 112 8
92 117 6
92 118 5
92 121 10
92 123 10
92 124 7
92 127 2
92 129 5
92 133 7
92 135 9
92 136 2
92 137 1
92 144 2
92 147 8
92 151 3
92 155 4
92 160 10
92 163 9
92 167 7
92 172 8
92 173 2
92 181 2
92 183 10
92 185 8
92 194 3
92 196 3
92 197 7
92 203 6
92 207 5
92 209 5
92 215 5
92 216 6
92 217 5
92 220 3
92 233 5
92 234 5
92 236 6
92 239 2
92 247 3
92 248 10
92 249 9
92 257 7
92 261 9
92 263 5
92 265 4
92 267 10
92 268 8
92 269 3
92 275 1
92 283 4
92 285 2
92 292 10
92 293 7
92 295 6
92 296 2
92 297 3
93 96 7
93 97 4
93 99 2
93 102 7
93 103 1
93 106 10
93 109 4
93 112 7
93 113 1
93 115 3
93 116 1
93 118 5
93 121 1
93 123 7
93 124 6
93 128 5
93 130 6
93 135 8
93 139 4
93 142 1
93 143 6
93 144 9
93 148 1
93 149 10
93 150 6
93 151 9
93 152 8
93 153 6
93 157 5
93 161 5
93 163 6
93 164 7
93 166 5
93 167 9
93 169 6
93 170 7
93 171 1
93 180 1
93 182 9
93 184 4
93 186 5
93 187 5
93 188 5
93 189 7
93 194 6
93 195 6
93 202 2
93 204 3
93 205 5
93 209 1
93 216 6
93 219 7
93 220 4
93 222 5
93 224 8
93 227 3
93 237 6
93 242 3
93 243 9
93 244 10
93 245 1
93 248 5
93 249 1
93 253 4
93 254 1
93 260 7
93 263 10
93 265 3
93 266 8
93 267 2
93 272 5
93 273 9
93 277 5
93 280 4
93 283 4
93 284 4
93 291 9
93 292 2
93 295 5
93 296 5
93 300 4
94 96 10
94 100 1
94 101 9
94 102 9
94 103 10
94 108 10
94 110 4
94 111 6
94 115 9
94 116 3
94 121 5
94 123 10
94 124 10
94 131 8
94 133 9
94 135 10
94 147 2
94 148 6
94 149 2
94 152 9
94 155 4
94 162 2
94 166 2
94 167 9
94 170 7
94 171 4
94 174 3
94 175 5
94 177 8
94 180 8
94 182 2
94 188 6
94 191 7
94 196 5
94 199 2
94 208 7
94 210 7
94 211 6
94 213 7
94 214 3
94 216 3
94 222 5
94 227 4
94 228 6
94 230 4
94 232 5
94 240 7
94 244 10
94 245 7
94 247 10
94 256 1
94 259 5
94 261 7
94 269 6
94 277 8
94 278 2
94 281 8
94 282 10
94 283 6
94 294 4
94 299 10
95 96 3
95 98 2
95 104 8
95 106 7
95 107 7
95 110 1
95 112 7
95 116 3
95 117 4
95 122 3
95 123 10
95 128 10
95 132 5
95 139 4
95 141 5
95 148 8
95 149 7
95 151 2
95 152 4
95 153 1
95 156 10
95 165 5
95 173 4
95 176 7
95 182 7
95 185 10
95 187 1
95 193 1
95 196 10
95 197 10
95 199 1
95 202 7
95 206 3
95 212 9
95 213 9
95 215 7
95 217 4
95 223 9
95 226 1
95 229 2
95 238 7
95 239 1
95 240 3
95 253 4
95 254 10
95 257 3
95 266 9
95 273 10
95 275 7
95 276 4
95 277 8
95 279 8
95 280 1
95 283 1
95 284 9
95 287 2
95 290 5
95 297 7
95 300 6
96 97 4
96 102 7
96 103 3
96 110 8
96 111 3
96 115 7
96 120 7
96 121 7
96 124 10
96 125 10
96 130 6
96 132 4
96 134 2
96 138 10
96 143 2
96 144 5
96 147 4
96 148 5
96 155 1
96 156 5
96 157 5
96 161 10
96 165 1
96 170 1
96 173 9
96 174 10
96 181 1
96 195 5
96 205 2
96 206 10
96 207 8
96 209 8
96 211 6
96 214 9
96 218 4
96 222 4
96 223 10
96 226 3
96 233 6
96 234 4
96 247 7
96 249 10
96 250 1
96 257 4
96 259 3
96 261 5
96 264 10
96 267 8
96 268 1
96 276 1
96 277 1
96 282 10
96 285 4
96 287 4
96 290 9
96 293 3
96 296 4
96 297 9
97 107 7
97 120 2
97 126 8
97 130 8
97 133 9
97 134 2
97 141 6
97 142 1
97 146 2
97 148 3
97 161 6
97 165 1
97 166 4
97 169 9
97 170 1
97 174 9
97 177 7
97 182 1
97 183 2
97 189 4
97 190 4
97 194 4
97 195 9
97 196 1
97 197 10
97 202 3
97 209 6
97 210 9
97 212 3
97 217 5
97 219 9
97 220 7
97 224 9
97 226 8
97 233 9
97 234 4
97 236 8
97 237 2
97 242 6
97 245 9
97 251 6
97 252 9
97 257 6
97 263 9
97 264 8
97 266 6
97 269 5
97 271 6
97 272 8
97 273 9
97 284 2
97 286 1
97 289 7
97 292 2
97 297 9
97 298 3
98 100 4
98 103 6
98 108 10
98 110 10
98 116 5
98 121 3
98 128 6
98 129 4
98 132 7
98 133 6
98 149 9
98 151 6
98 154 7
98 155 6
98 157 9
98 161 6
98 162 8
98 170 5
98 172 2
98 173 8
98 174 7
98 175 1
98 178 6
98 184 6
98 190 2
98 191 5
98 194 3
98 208 10
98 214 2
98 218 6
98 220 1
98 224 9
98 232 2
98 236 4
98 242 10
98 243 10
98 246 4
98 257 5
98 262 9
98 263 1
98 266 1
98 269 3
98 270 8
98 273 3
98 276 3
98 280 5
98 283 5
98 285 5
98 288 4
98 290 6
99 105 8
99 109 3
99 117 2
99 128 10
99 129 6
99 130 6
99 131 2
99 135 1
99 142 10
99 150 1
99 153 9
99 159 10
99 160 2
99 171 5
99 172 9
99 175 6
99 177 3
99 179 10
99 180 3
99 182 6
99 184 7
99 192 5
99 193 3
99 194 2
99 195 1
99 203 7
99 206 3
99 210 7
99 214 10
99 217 9
99 218 4
99 219 2
99 225 5
99 226 9
99 233 10
99 240 5
99 252 6
99 253 3
99 257 6
99 264 6
99 266 6
99 274 8
99 275 10
99 278 6
99 285 3
99 286 1
100 103 9
100 109 7
100 112 7
100 113 8
100 116 4
100 117 3
100 124 4
100 127 9
100 129 7
100 132 3
100 135 7
100 136 10
100 137 1
100 140 8
100 141 9
100 142 10
100 154 2
100 158 6
100 160 8
100 166 6
100 168 6
100 169 1
100 172 3
100 173 3
100 177 5
100 181 7
100 183 10
100 184 1
100 189 7
100 190 10
100 191 8
100 192 6
100 194 5
100 196 5
100 197 9
100 198 2
100 203 6
100 211 1
100 212 10
100 213 1
100 214 4
100 215 6
100 220 8
100 224 7
100 225 8
100 227 4
100 231 3
100 232 4
100 233 3
100 234 8
100 237 8
100 238 2
100 239 6
100 243 7
100 245 4
100 251 4
100 258 8
100 259 1
100 264 6
100 268 6
100 269 7
100 272 4
100 273 3
100 281 10
100 283 6
100 287 3
100 288 6
100 292 4
100 293 4
100 295 5
100 299 3
101 104 10
101 109 7
101 115 6
101 117 9
101 119 9
101 121 3
101 122 10
101 124 9
101 125 8
101 127 1
101 131 3
101 132 8
101 133 4
101 134 3
101 137 3
101 140 3
101 145 5
101 149 5
101 152 5
101 167 5
101 170 1
101 172 10
101 179 9
101 180 2
101 183 5
101 187 9
101 188 9
101 192 9
101 194 1
101 200 3
101 201 7
101 204 2
101 207 4
101 210 9
101 214 4
101 218 5
101 222 9
101 223 1
101 231 5
101 241 3
101 242 3
101 243 9
101 244 7
101 248 7
101 257 10
101 259 2
101 260 4
101 262 1
101 265 2
101 266 1
101 267 1
101 269 4
101 270 5
101 273 6
101 276 10
101 278 8
101 283 3
101 291 1
101 294 5
101 298 5
101 300 10
102 105 6
102 116 7
102 118 5
102 124 3
102 125 3
102 129 5
102 134 6
102 139 9
102 143 8
102 145 1
102 147 2
102 148 8
102 153 4
102 159 2
102 162 4
102 166 9
102 170 9
102 173 3
102 174 4
102 175 8
102 180 2
102 181 6
102 184 2
102 186 6
102 191 8
102 205 5
102 206 7
102 208 5
102 211 4
102 214 6
102 220 8
102 222 1
102 227 10
102 236 6
102 241 1
102 243 9
102 245 6
102 246 6
102 250 7
102 251 1
102 253 5
102 254 7
102 255 1
102 259 3
102 261 10
102 270 5
102 272 2
102 275 3
102 278 8
102 279 10
102 281 4
102 283 3
102 285 4
102 287 5
102 288 2
102 291 7
102 292 2
102 293 1
103 104 8
103 106 2
103 107 2
103 108 7
103 114 2
103 123 9
103 126 7
103 129 6
103 130 10
103 131 3
103 134 10
103 136 1
103 141 5
103 143 1
103 153 1
103 155 4
103 156 1
103 159 4
103 160 1
103 162 4
103 163 4
103 168 3
103 169 4
103 178 7
103 180 4
103 183 10
103 186 10
103 187 7
103 199 8
103 204 6
103 210 5
103 212 3
103 214 5
103 215 1
103 218 4
103 219 6
103 223 9
103 225 1
103 232 2
103 233 7
103 234 1
103 241 7
103 243 8
103 251 5
103 253 10
103 255 5
103 260 6
103 262 9
103 264 7
103 265 8
103 269 9
103 270 2
103 275 10
103 277 1
103 279 6
103 287 5
103 290 4
103 295 8
103 297 1
103 298 4
104 107 2
104 109 5
104 115 9
104 117 2
104 119 6
104 125 2
104 130 10
104 133 2
104 136 4
104 139 6
104 142 6
104 145 8
104 149 8
104 153 2
104 160 3
104 167 1
104 172 1
104 176 9
104 177 3
104 178 4
104 179 4
104 180 9
104 181 2
104 188 8
104 189 10
104 190 6
104 192 4
104 196 6
104 201 9
104 202 7
104 203 5
104 205 3
104 206 2
104 224 5
104 226 9
104 228 3
104 229 2
104 232 2
104 236 8
104 237 3
104 239 1
104 243 1
104 244 7
104 245 10
104 248 7
104 250 9
104 253 4
104 255 8
104 256 5
104 257 4
104 262 2
104 264 4
104 265 4
104 270 7
104 273 3
104 274 4
104 277 3
104 279 2
104 280 1
104 286 3
104 288 3
104 289 7
104 293 1
104 294 10
104 297 1
104 300 9
105 115 2
105 118 10
105 119 10
105 120 8
105 128 1
105 131 3
105 145 2
105 146 10
105 147 2
105 149 8
105 150 10
105 151 10
105 152 9
105 155 4
105 156 2
105 158 9
105 164 1
105 172 8
105 179 10
105 180 2
105 181 3
105 183 8
105 194 6
105 200 9
105 203 5
105 206 9
105 209 10
105 210 9
105 221 10
105 222 1
105 223 1
105 225 5
105 231 9
105 234 8
105 235 4
105 247 2
105 249 7
105 251 8
105 253 3
105 259 2
105 262 1
105 264 3
105 265 8
105 277 4
105 278 9
105 293 7
105 299 4
105 300 7
106 117 3
106 120 4
106 125 5
106 126 10
106 128 1
106 129 2
106 130 6
106 135 1
106 143 1
106 150 3
106 151 6
106 152 10
106 155 9
106 159 5
106 163 1
106 166 4
106 167 6
106 178 6
106 179 8
106 184 9
106 188 3
106 190 6
106 191 1
106 192 2
106 195 8
106 199 10
106 200 5
106 202 2
106 208 3
106 215 7
106 218 10
106 219 3
106 223 2
106 226 10
106 231 6
106 232 3
106 233 8
106 234 7
106 237 1
106 238 3
106 239 1
106 243 8
106 248 3
106 250 7
106 252 6
106 254 5
106 260 9
106 263 9
106 264 8
106 265 3
106 267 8
106 269 6
106 270 3
106 272 1
106 273 5
106 275 5
106 280 5
106 283 4
106 284 1
106 285 6
106 286 1
106 287 8
106 289 7
106 290 9
106 293 2
106 294 8
106 295 2
107 109 3
107 111 10
107 112 5
107 118 6
107 123 3
107 126 2
107 133 7
107 134 7
107 135 9
107 140 1
107 141 2
107 142 6
107 144 2
107 152 10
107 154 10
107 156 2
107 159 3
107 162 2
107 165 5
107 168 4
107 177 10
107 179 2
107 181 4
107 184 2
107 188 6
107 201 1
107 202 7
107 203 8
107 206 7
107 215 1
107 219 2
107 222 1
107 223 10
107 229 1
107 232 1
107 234 1
107 235 10
107 236 10
107 238 7
107 239 5
107 241 7
107 246 6
107 252 6
107 253 2
107 256 7
107 265 2
107 267 8
107 272 7
107 280 10
107 281 3
107 282 8
107 283 4
107 288 6
107 289 6
107 293 2
107 296 1
108 112 6
108 113 6
108 114 10
108 117 7
108 118 1
108 122 2
108 125 9
108 134 9
108 141 2
108 151 1
108 152 9
108 157 10
108 160 6
108 161 4
108 171 5
108 178 3
108 185 8
108 186 1
108 190 9
108 193 9
108 196 2
108 198 8
108 205 5
108 206 2
108 212 10
108 213 5
108 215 1
108 223 6
108 224 10
108 226 6
108 237 3
108 245 5
108 255 8
108 257 9
108 261 5
108 262 1
108 266 9
108 270 2
108 271 8
108 272 8
108 275 2
108 276 1
108 278 4
108 281 1
108 283 1
108 288 3
108 289 9
108 292 4
108 296 2
108 297 3
108 298 6
108 299 7
109 112 3
109 119 6
109 126 3
109 131 7
109 132 10
109 142 2
109 144 8
109 145 7
109 149 10
109 151 4
109 157 8
109 162 1
109 164 4
109 167 9
109 173 1
109 175 4
109 178 4
109 179 9
109 183 9
109 185 2
109 188 6
109 195 4
109 198 6
109 200 10
109 201 5
109 204 7
109 205 8
109 208 8
109 211 3
109 217 6
109 223 9
109 224 1
109 226 10
109 230 7
109 232 2
109 235 4
109 239 9
109 240 8
109 242 9
109 243 3
109 248 4
109 249 1
109 255 3
109 260 3
109 263 5
109 264 1
109 265 9
109 266 9
109 267 2
109 268 3
109 273 10
109 276 2
109 279 4
109 280 3
109 282 6
109 286 3
109 287 1
109 295 9
109 298 10
110 113 3
110 118 10
110 124 6
110 125 4
110 126 6
110 127 6
110 128 5
110 129 10
110 132 6
110 133 6
110 134 2
110 136 9
110 138 10
110 141 9
110 148 7
110 154 4
110 157 7
110 158 3
110 162 10
110 163 5
110 168 5
110 171 5
110 175 1
110 178 8
110 179 7
110 180 1
110 181 10
110 183 4
110 185 10
110 190 8
110 197 9
110 198 10
110 199 8
110 214 2
110 218 3
110 220 1
110 221 4
110 222 4
110 223 7
110 227 4
110 231 8
110 233 7
110 236 2
110 239 9
110 242 4
110 246 3
110 257 6
110 259 5
110 266 9
110 271 8
110 272 9
110 277 9
110 278 5
110 284 9
110 286 8
110 287 5
110 292 2
110 299 1
110 300 10
111 112 10
111 113 5
111 115 10
111 116 2
111 120 8
111 122 6
111 127 1
111 128 7
111 135 8
111 137 7
111 142 9
111 145 7
111 147 4
111 151 4
111 154 4
111 157 4
111 164 8
111 166 2
111 168 9
111 170 6
111 171 6
111 173 7
111 175 8
111 178 3
111 184 7
111 189 4
111 193 2
111 197 2
111 198 4
111 200 5
111 206 3
111 207 8
111 210 4
111 213 10
111 215 10
111 218 7
111 222 7
111 225 9
111 226 3
111 237 4
111 239 6
111 240 8
111 244 5
111 248 3
111 249 10
111 252 5
111 254 8
111 258 9
111 268 8
111 273 8
111 275 5
111 277 7
111 281 4
111 284 9
111 291 6
111 297 5
112 114 10
112 118 5
112 120 10
112 131 6
112 133 6
112 134 6
112 137 5
112 141 1
112 150 7
112 156 5
112 157 9
112 165 9
112 168 1
112 169 4
112 176 10
112 177 10
112 178 1
112 180 1
112 185 4
112 186 3
112 187 8
112 189 10
112 194 6
112 195 4
112 198 9
112 200 8
112 201 7
112 202 3
112 205 5
112 206 9
112 211 5
112 213 1
112 216 10
112 218 4
112 220 7
112 221 2
112 223 3
112 227 10
112 229 4
112 232 6
112 235 8
112 238 6
112 249 3
112 250 6
112 252 8
112 256 2
112 262 6
112 263 2
112 266 5
112 272 7
112 274 8
112 275 8
112 276 7
112 290 1
112 291 9
112 294 9
112 296 1
112 299 9
113 114 2
113 115 8
113 118 6
113 119 9
113 120 3
113 124 3
113 125 4
113 130 4
113 132 3
113 133 3
113 143 2
113 144 6
113 146 10
113 149 7
113 150 7
113 157 3
113 158 5
113 159 6
113 163 1
113 165 3
113 167 8
113 168 8
113 173 2
113 177 6
113 178 5
113 179 1
113 188 9
113 191 2
113 192 6
113 197 8
113 202 8
113 206 7
113 207 8
113 209 10
113 210 4
113 216 4
113 217 5
113 221 4
113 223 1
113 226 10
113 229 9
113 237 10
113 241 5
113 242 8
113 245 4
113 248 10
113 251 5
113 253 1
113 255 10
113 256 2
113 260 8
113 265 9
113 269 7
113 278 3
113 285 3
113 286 5
113 288 1
113 292 5
113 293 2
113 300 1
114 118 1
114 119 10
114 122 3
114 128 2
114 132 7
114 133 9
114 138 8
114 140 1
114 141 1
114 143 4
114 146 2
114 153 8
114 161 1
114 165 7
114 167 7
114 169 4
114 170 5
114 173 1
114 174 4
114 179 3
114 185 9
114 194 1
114 199 10
114 206 10
114 212 5
114 214 5
114 216 1
114 220 6
114 221 1
114 225 1
114 228 7
114 238 2
114 239 8
114 244 3
114 250 9
114 252 3
114 261 1
114 263 9
114 264 5
114 265 4
114 266 7
114 268 9
114 269 1
114 270 9
114 288 10
114 291 10
114 292 4
114 293 7
114 298 1
115 120 4
115 126 6
115 129 3
115 143 6
115 145 1
115 146 1
115 159 5
115 160 1
115 163 4
115 165 9
115 166 3
115 171 5
115 179 6
115 181 4
115 186 1
115 187 4
115 192 9
115 193 4
115 201 8
115 203 7
115 212 10
115 214 10
115 217 9
115 225 7
115 226 9
115 230 5
115 231 3
115 238 10
115 239 4
115 240 4
115 246 8
115 249 1
115 250 6
115 252 1
115 253 5
115 254 1
115 260 4
115 262 10
115 263 4
115 264 9
115 265 8
115 269 9
115 273 10
115 282 3
115 286 8
115 287 6
115 288 3
115 289 5
115 295 2
115 297 7
116 118 4
116 124 6
116 132 10
116 133 3
116 144 1
116 145 5
116 147 1
116 149 8
116 150 5
116 152 9
116 156 5
116 157 6
116 158 3
116 160 8
116 161 2
116 164 10
116 169 8
116 171 7
116 175 9
116 180 6
116 181 1
116 184 10
116 185 10
116 187 9
116 193 9
116 194 1
116 195 2
116 205 7
116 206 8
116 207 2
116 209 3
116 211 9
116 215 1
116 220 10
116 221 8
116 223 6
116 228 5
116 229 10
116 237 8
116 241 3
116 242 7
116 244 1
116 246 10
116 250 1
116 252 4
116 255 9
116 256 3
116 261 10
116 265 7
116 272 3
116 274 9
116 279 7
116 280 5
116 295 9
116 299 4
117 120 10
117 136 7
117 139 5
117 142 1
117 152 5
117 156 8
117 157 7
117 158 4
117 164 9
117 165 1
117 167 6
117 170 10
117 180 10
117 182 4
117 185 8
117 187 2
117 189 4
117 196 10
117 197 4
117 199 5
117 200 1
117 201 7
117 202 6
117 206 5
117 210 3
117 212 4
117 213 1
117 218 3
117 221 8
117 223 9
117 227 3
117 237 9
117 247 2
117 252 7
117 254 2
117 260 8
117 265 5
117 266 4
117 270 8
117 274 10
117 276 10
117 279 5
117 282 8
117 283 10
117 286 8
117 293 5
117 297 2
117 298 5
117 299 8
117 300 9
118 120 4
118 122 2
118 123 10
118 125 7
118 131 2
118 132 10
118 143 4
118 146 4
118 148 3
118 149 9
118 153 6
118 155 10
118 159 7
118 160 5
118 161 8
118 168 3
118 173 4
118 176 2
118 177 10
118 181 4
118 184 3
118 187 5
118 189 6
118 194 9
118 195 9
118 200 4
118 203 4
118 211 8
118 212 10
118 216 1
118 217 9
118 218 9
118 225 9
118 234 7
118 237 10
118 240 5
118 247 2
118 256 6
118 257 8
118 262 2
118 263 8
118 267 2
118 269 7
118 272 5
118 274 8
118 276 8
118 279 6
118 281 9
118 282 6
118 284 6
118 285 4
118 292 9
118 296 9
118 297 5
118 298 2
118 300 2
119 120 10
119 122 5
119 129 7
119 134 10
119 135 3
119 146 6
119 149 6
119 151 4
119 155 8
119 157 1
119 158 7
119 160 10
119 163 5
119 168 8
119 170 10
119 172 2
119 176 6
119 177 10
119 180 2
119 182 3
119 189 10
119 190 5
119 191 3
119 196 7
119 198 4
119 200 7
119 201 3
119 203 3
119 209 8
119 213 8
119 215 3
119 216 6
119 227 8
119 228 2
119 230 9
119 232 8
119 240 3
119 244 3
119 247 9
119 249 9
119 251 10
119 259 9
119 261 8
119 265 7
119 266 7
119 267 1
119 268 6
119 270 5
119 271 8
119 275 7
119 285 6
119 287 3
119 290 4
119 297 4
119 298 9
119 300 2
120 121 8
120 123 2
120 124 8
120 131 3
120 134 5
120 140 3
120 141 8
120 145 6
120 146 9
120 150 2
120 151 9
120 155 10
120 160 4
120 163 2
120 165 6
120 167 4
120 176 5
120 179 7
120 185 5
120 188 1
120 189 2
120 190 4
120 192 2
120 194 3
120 196 10
120 198 5
120 200 9
120 205 2
120 208 4
120 214 7
120 216 7
120 219 6
120 222 5
120 223 5
120 225 4
120 231 1
120 236 1
120 244 4
120 247 4
120 248 3
120 254 8
120 257 6
120 259 4
120 260 7
120 263 1
120 267 9
120 269 3
120 271 1
120 272 1
120 273 7
120 274 8
120 276 7
120 283 8
120 288 3
120 292 5
120 296 10
120 297 6
121 123 2
121 126 3
121 128 5
121 133 5
121 135 3
121 144 5
121 154 1
121 159 8
121 160 2
121 161 7
121 162 7
121 165 2
121 167 1
121 171 5
121 172 5
121 173 1
121 174 8
121 177 4
121 179 4
121 180 7
121 181 6
121 182 10
121 188 6
121 196 1
121 198 7
121 199 10
121 200 8
121 205 3
121 206 6
121 207 3
121 210 7
121 211 4
121 212 5
121 216 6
121 218 1
121 220 10
121 221 6
121 222 7
121 223 3
121 224 1
121 232 9
121 234 7
121 240 3
121 244 8
121 247 8
121 249 6
121 261 2
121 262 2
121 263 2
121 264 7
121 265 10
121 266 5
121 267 4
121 268 8
121 269 5
121 272 5
121 274 4
121 279 8
121 280 10
121 285 1
121 286 3
121 289 4
121 296 5
122 125 9
122 129 1
122 133 1
122 137 8
122 139 8
122 140 5
122 141 1
122 143 10
122 144 5
122 146 4
122 159 6
122 161 6
122 176 5
122 186 8
122 187 7
122 189 8
122 192 2
122 196 6
122 200 7
122 202 2
122 209 5
122 210 2
122 211 6
122 212 9
122 213 2
122 223 5
122 224 8
122 226 4
122 241 1
122 242 4
122 251 9
122 253 5
122 256 8
122 259 7
122 262 1
122 263 5
122 264 4
122 266 8
122 274 3
122 275 4
122 277 10
122 282 7
122 283 4
122 285 10
122 290 7
122 292 9
122 293 4
122 300 8
123 126 9
123 135 1
123 139 3
123 145 4
123 155 2
123 156 1
123 157 7
123 158 4
123 160 5
123 163 5
123 166 10
123 176 8
123 178 8
123 181 6
123 189 8
123 190 10
123 191 10
123 194 10
123 196 2
123 197 3
123 204 5
123 206 10
123 209 7
123 214 9
123 216 8
123 218 4
123 219 7
123 222 8
123 227 4
123 229 6
123 231 10
123 232 8
123 241 2
123 247 4
123 249 5
123 256 3
123 258 10
123 262 8
123 265 1
123 268 3
123 270 6
123 273 4
123 275 2
123 276 2
123 277 9
123 281 1
123 282 5
123 285 4
123 287 10
123 288 5
123 289 4
123 291 8
123 299 8
124 125 9
124 127 1
124 129 4
124 136 9
124 141 6
124 142 6
124 143 6
124 145 2
124 146 7
124 148 3
124 154 3
124 165 1
124 166 3
124 169 9
124 174 8
124 175 4
124 180 2
124 188 3
124 189 5
124 191 7
124 193 4
124 200 7
124 202 1
124 208 2
124 210 4
124 211 9
124 213 9
124 215 6
124 216 5
124 220 9
124 221 9
124 223 5
124 224 4
124 228 10
124 229 4
124 233 10
124 236 2
124 239 10
124 242 5
124 245 3
124 248 4
124 252 1
124 255 1
124 265 1
124 267 8
124 271 10
124 272 9
124 273 4
124 274 6
124 276 5
124 279 1
124 283 2
124 286 2
124 291 8
124 293 3
124 294 5
124 298 10
124 299 6
125 127 7
125 129 9
125 130 6
125 133 2
125 136 6
125 139 10
125 144 1
125 147 7
125 148 4
125 156 3
125 158 1
125 171 8
125 173 5
125 174 9
125 178 8
125 179 9
125 181 9
125 182 1
125 183 4
125 185 8
125 187 1
125 194 5
125 197 2
125 199 2
125 200 8
125 205 8
125 207 10
125 209 2
125 214 8
125 218 6
125 224 1
125 227 2
125 229 6
125 230 6
125 231 3
125 237 4
125 241 5
125 243 3
125 245 2
125 248 1
125 254 4
125 257 8
125 275 8
125 278 2
125 280 6
125 282 5
125 292 1
125 293 8
125 294 3
125 299 6
126 127 9
126 130 1
126 135 6
126 138 1
126 144 5
126 145 2
126 147 3
126 148 9
126 149 10
126 153 4
126 157 5
126 158 1
126 159 3
126 165 9
126 166 5
126 167 3
126 170 6
126 176 2
126 177 1
126 187 9
126 190 4
126 192 10
126 197 8
126 201 8
126 204 6
126 205 3
126 206 6
126 207 2
126 208 10
126 211 9
126 215 2
126 217 6
126 221 6
126 223 1
126 229 6
126 230 2
126 231 6
126 233 8
126 234 9
126 240 4
126 241 1
126 242 7
126 245 9
126 247 1
126 248 10
126 249 4
126 250 10
126 251 5
126 252 9
126 258 8
126 261 9
126 263 10
126 266 6
126 270 3
126 271 9
126 274 5
126 276 6
126 279 10
126 285 10
126 294 8
126 295 2
127 130 7
127 134 6
127 141 6
127 143 9
127 145 1
127 147 1
127 148 7
127 149 1
127 151 8
127 153 10
127 154 6
127 161 3
127 162 2
127 164 6
127 165 8
127 168 8
127 172 6
127 174 4
127 176 6
127 179 2
127 182 9
127 188 3
127 191 8
127 193 3
127 198 6
127 201 2
127 204 1
127 206 1
127 207 9
127 209 1
127 212 3
127 217 1
127 222 6
127 223 4
127 226 8
127 228 6
127 229 7
127 232 6
127 236 6
127 241 7
127 246 3
127 247 4
127 250 6
127 254 2
127 265 9
127 266 6
127 271 3
127 276 5
127 277 4
127 279 9
127 281 2
127 289 8
127 291 8
127 296 4
127 299 2
128 136 8
128 137 9
128 140 7
128 149 9
128 153 4
128 158 10
128 161 5
128 163 8
128 164 4
128 168 5
128 170 3
128 177 9
128 181 7
128 183 8
128 190 8
128 194 5
128 198 2
128 199 8
128 207 6
128 216 7
128 220 9
128 221 3
128 223 4
128 231 2
128 235 9
128 238 10
128 242 6
128 245 5
128 250 8
128 253 10
128 255 10
128 257 8
128 262 8
128 264 6
128 266 1
128 268 9
128 269 5
128 270 6
128 274 1
128 275 7
128 285 10
128 287 7
128 288 5
128 289 2
128 297 4
128 299 8
128 300 10
129 132 4
129 133 4
129 134 6
129 138 6
129 139 4
129 140 5
129 141 9
129 145 2
129 153 1
129 159 7
129 161 6
129 166 9
129 169 3
129 170 7
129 171 3
129 174 1
129 177 10
129 180 8
129 181 4
129 184 6
129 189 7
129 190 4
129 193 10
129 196 2
129 202 4
129 203 10
129 210 10
129 213 3
129 218 3
129 220 3
129 223 7
129 228 2
129 229 1
129 241 7
129 244 1
129 247 2
129 250 7
129 252 3
129 253 6
129 255 1
129 258 4
129 259 4
129 266 3
129 270 5
129 281 1
129 284 3
129 286 10
129 289 10
129 290 4
129 296 1
130 133 3
130 139 4
130 143 10
130 145 6
130 152 2
130 157 9
130 164 8
130 165 9
130 168 5
130 169 4
130 171 1
130 173 10
130 176 7
130 180 2
130 186 9
130 189 6
130 196 1
130 197 3
130 211 5
130 214 1
130 215 3
130 217 2
130 218 1
130 224 2
130 226 9
130 230 6
130 235 10
130 238 3
130 247 8
130 255 8
130 266 2
130 270 5
130 273 4
130 277 4
130 278 8
130 280 1
130 281 5
130 282 2
130 283 9
130 286 4
130 289 6
130 290 1
130 294 4
130 295 2
130 296 6
130 299 10
131 137 6
131 142 7
131 153 7
131 155 1
131 157 4
131 158 6
131 172 4
131 173 3
131 178 7
131 180 2
131 181 6
131 182 3
131 185 10
131 187 6
131 188 5
131 189 2
131 190 2
131 193 10
131 196 1
131 198 1
131 200 6
131 214 6
131 221 3
131 222 3
131 223 3
131 229 9
131 231 1
131 235 7
131 240 10
131 241 3
131 250 5
131 253 9
131 260 5
131 262 5
131 264 4
131 267 7
131 269 2
131 280 7
131 284 2
131 285 8
131 293 3
131 297 10
132 137 9
132 150 2
132 154 5
132 157 8
132 168 7
132 173 8
132 174 1
132 175 8
132 176 2
132 181 10
132 182 5
132 185 2
132 192 10
132 197 5
132 201 8
132 202 1
132 204 1
132 211 3
132 226 5
132 227 2
132 228 5
132 229 10
132 232 7
132 234 5
132 236 10
132 251 9
132 252 10
132 256 9
132 258 9
132 261 9
132 263 6
132 266 9
132 267 7
132 269 6
132 271 10
132 272 1
132 273 1
132 278 1
132 282 8
132 284 4
132 285 10
132 294 4
133 134 2
133 136 7
133 137 7
133 138 7
133 142 10
133 144 9
133 146 8
133 148 4
133 158 3
133 162 5
133 164 9
133 167 6
133 169 1
133 173 1
133 174 10
133 175 7
133 178 7
133 179 1
133 182 5
133 185 2
133 186 1
133 188 5
133 191 3
133 193 8
133 194 7
133 197 10
133 200 2
133 201 9
133 202 10
133 205 3
133 209 8
133 210 10
133 213 9
133 214 1
133 218 3
133 220 3
133 222 8
133 223 9
133 236 6
133 240 6
133 244 2
133 245 3
133 252 7
133 254 10
133 260 7
133 261 1
133 266 8
133 285 1
133 286 10
133 287 2
133 290 5
133 299 3
134 135 4
134 138 2
134 139 5
134 140 2
134 141 5
134 152 9
134 156 9
134 158 2
134 166 1
134 169 10
134 174 7
134 175 2
134 180 1
134 182 7
134 188 1
134 189 7
134 192 8
134 195 2
134 197 6
134 201 7
134 203 8
134 206 7
134 208 8
134 209 4
134 211 7
134 213 7
134 221 2
134 223 1
134 226 2
134 229 8
134 237 1
134 238 10
134 239 8
134 240 1
134 244 9
134 247 3
134 250 4
134 265 6
134 266 5
134 273 1
134 274 9
134 276 4
134 278 9
134 284 9
134 286 3
134 287 6
134 295 5
134 297 3
135 141 7
135 143 2
135 149 2
135 150 2
135 153 9
135 156 2
135 159 9
135 162 5
135 167 3
135 170 3
135 174 10
135 176 10
135 182 10
135 183 1
135 187 10
135 190 10
135 191 5
135 201 8
135 204 8
135 212 5
135 216 4
135 217 3
135 219 10
135 223 4
135 224 2
135 234 6
135 235 8
135 238 7
135 243 1
135 246 9
135 251 10
135 252 9
135 261 1
135 262 5
135 271 9
135 274 6
135 276 5
135 277 4
135 286 7
135 287 9
135 289 1
135 290 4
135 295 3
135 296 2
135 300 1
136 142 1
136 146 3
136 156 1
136 157 6
136 163 7
136 164 1
136 166 8
136 169 8
136 170 2
136 171 7
136 172 5
136 173 8
136 177 10
136 178 4
136 182 7
136 184 6
136 189 2
136 190 8
136 194 1
136 198 9
136 205 6
136 209 3
136 212 6
136 215 6
136 217 7
136 220 9
136 223 3
136 229 7
136 230 6
136 235 2
136 238 6
136 242 3
136 243 6
136 250 7
136 255 3
136 256 5
136 260 1
136 262 1
136 263 1
136 266 9
136 272 10
136 277 3
136 280 8
136 283 10
136 286 1
136 290 7
136 291 1
137 139 2
137 141 7
137 147 2
137 151 1
137 152 8
137 156 8
137 157 8
137 160 9
137 164 5
137 171 5
137 172 6
137 173 10
137 175 4
137 176 3
137 182 5
137 184 7
137 187 2
137 190 9
137 202 3
137 203 8
137 204 7
137 206 10
137 207 3
137 213 6
137 218 1
137 220 9
137 222 10
137 227 10
137 228 9
137 234 9
137 235 2
137 236 10
137 237 10
137 240 8
137 241 3
137 245 8
137 246 5
137 248 3
137 250 10
137 256 5
137 257 2
137 260 8
137 263 2
137 267 7
137 270 10
137 274 4
137 279 9
137 280 5
137 281 7
137 284 9
137 285 2
137 288 8
137 296 7
137 297 4
137 300 7
138 141 4
138 143 7
138 146 4
138 149 10
138 156 2
138 163 5
138 165 9
138 169 9
138 175 9
138 177 5
138 201 8
138 203 2
138 208 1
138 209 2
138 210 5
138 214 3
138 218 4
138 223 3
138 224 8
138 225 10
138 227 7
138 228 6
138 229 7
138 240 4
138 244 4
138 246 2
138 250 3
138 255 1
138 256 5
138 258 9
138 261 4
138 262 9
138 264 10
138 265 8
138 267 9
138 268 10
138 270 10
138 273 8
138 278 1
138 282 1
138 283 10
138 287 9
138 289 3
138 297 9
138 298 10
138 299 3
138 300 10
139 145 2
139 148 10
139 149 10
139 151 9
139 153 6
139 155 8
139 156 10
139 158 2
139 159 2
139 164 1
139 165 5
139 168 9
139 170 2
139 171 8
139 173 5
139 176 6
139 181 5
139 188 9
139 191 9
139 192 2
139 197 8
139 198 1
139 200 3
139 206 6
139 207 8
139 208 1
139 212 10
139 213 6
139 216 7
139 217 5
139 218 8
139 220 4
139 222 4
139 235 7
139 239 8
139 240 9
139 241 1
139 242 7
139 243 2
139 246 10
139 248 7
139 251 8
139 252 8
139 261 2
139 263 5
139 264 2
139 266 5
139 271 7
139 284 7
139 287 10
139 289 7
139 291 6
139 294 3
139 297 5
139 298 4
139 300 2
140 141 7
140 143 7
140 144 9
140 149 3
140 151 9
140 152 5
140 154 9
140 158 2
140 161 10
140 162 6
140 164 5
140 168 5
140 171 3
140 174 6
140 176 6
140 178 8
140 185 2
140 188 3
140 190 10
140 198 7
140 200 10
140 201 3
140 203 9
140 204 5
140 208 8
140 210 3
140 211 6
140 219 9
140 226 2
140 230 6
140 232 8
140 234 4
140 235 1
140 236 6
140 239 3
140 242 5
140 243 1
140 244 10
140 245 5
140 247 5
140 252 3
140 253 2
140 256 2
140 260 2
140 265 8
140 266 5
140 272 7
140 277 5
140 279 7
140 280 8
140 288 6
140 290 4
140 297 7
141 142 7
141 143 5
141 144 10
141 145 10
141 147 8
141 153 4
141 155 8
141 157 1
141 163 3
141 165 1
141 169 7
141 170 7
141 171 1
141 172 9
141 177 4
141 179 4
141 182 4
141 188 9
141 189 2
141 195 9
141 196 2
141 197 1
141 205 7
141 208 2
141 210 2
141 212 5
141 217 6
141 218 7
141 221 5
141 224 9
141 225 2
141 243 9
141 244 10
141 245 7
141 249 7
141 250 6
141 252 6
141 256 9
141 257 9
141 261 6
141 270 4
141 274 3
141 276 9
141 279 4
141 280 8
141 283 8
141 289 4
141 292 7
141 293 5
141 298 10
141 300 6
142 150 2
142 151 7
142 155 6
142 157 2
142 160 5
142 161 6
142 163 1
142 164 8
142 171 9
142 174 2
142 176 2
142 177 5
142 181 8
142 182 1
142 183 3
142 184 1
142 187 5
142 190 5
142 198 8
142 199 10
142 200 10
142 201 3
142 204 10
142 207 10
142 210 9
142 213 6
142 214 6
142 216 7
142 217 4
142 226 9
142 229 4
142 240 8
142 242 1
142 244 6
142 246 2
142 247 10
142 249 8
142 250 2
142 257 9
142 259 1
142 260 10
142 261 5
142 265 2
142 267 7
142 272 7
142 274 5
142 275 6
142 276 7
142 277 4
142 282 8
142 284 9
142 288 6
142 298 1
142 300 4
143 144 8
143 154 1
143 156 8
143 161 1
143 163 7
143 168 8
143 175 3
143 176 1
143 177 8
143 186 2
143 187 3
143 189 6
143 196 4
143 217 2
143 219 1
143 222 7
143 228 4
143 232 4
143 235 10
143 244 5
143 245 8
143 246 7
143 247 3
143 250 3
143 251 5
143 256 9
143 260 6
143 261 2
143 262 5
143 264 1
143 268 7
143 269 10
143 270 7
143 271 3
143 274 6
143 276 4
143 278 6
143 279 3
143 280 5
143 282 9
143 284 9
143 286 4
143 290 6
143 291 2
143 292 5
143 294 8
143 295 2
143 300 10
144 145 7
144 150 3
144 155 2
144 165 7
144 168 6
144 170 6
144 171 8
144 174 4
144 177 1
144 180 3
144 183 10
144 184 7
144 189 10
144 194 1
144 197 2
144 200 6
144 203 10
144 207 10
144 208 6
144 209 1
144 211 9
144 225 7
144 226 3
144 227 7
144 228 3
144 229 7
144 239 9
144 240 4
144 241 10
144 246 7
144 249 3
144 251 5
144 254 9
144 255 5
144 256 8
144 261 9
144 268 4
144 269 9
144 271 4
144 273 4
144 274 4
144 276 3
144 277 10
144 281 6
144 282 2
144 284 7
144 285 8
144 286 7
144 289 10
144 291 3
144 298 8
145 146 8
145 149 6
145 151 6
145 159 1
145 160 6
145 162 4
145 165 5
145 167 10
145 173 1
145 175 9
145 176 9
145 180 4
145 184 1
145 186 1
145 188 5
145 190 1
145 198 10
145 200 7
145 208 6
145 210 9
145 213 7
145 220 8
145 226 10
145 228 10
145 231 3
145 235 7
145 238 3
145 239 4
145 240 10
145 243 1
145 245 2
145 255 10
145 257 9
145 262 7
145 264 10
145 272 3
145 275 1
145 279 7
145 281 3
145 286 2
145 290 2
145 296 8
145 297 9
146 147 10
146 148 10
146 149 9
146 152 6
146 165 6
146 169 10
146 170 2
146 175 1
146 177 9
146 183 5
146 187 9
146 190 4
146 201 2
146 206 9
146 214 7
146 219 3
146 222 5
146 224 4
146 230 8
146 238 4
146 239 3
146 241 1
146 244 3
146 246 6
146 250 10
146 251 3
146 256 8
146 265 6
146 268 10
146 274 10
146 276 1
146 278 10
146 280 5
146 281 6
146 283 3
146 289 9
146 290 7
146 293 8
146 296 3
146 298 3
147 148 10
147 152 10
147 164 6
147 165 6
147 166 7
147 168 9
147 170 7
147 174 3
147 176 8
147 179 5
147 180 1
147 181 3
147 186 8
147 190 4
147 196 9
147 197 5
147 202 9
147 203 5
147 206 5
147 212 5
147 216 8
147 227 5
147 228 7
147 234 6
147 237 9
147 238 7
147 241 7
147 242 6
147 247 8
147 248 10
147 252 7
147 258 4
147 263 10
147 264 2
147 270 7
147 278 5
147 282 9
147 285 2
147 289 5
147 290 2
147 294 6
147 299 8
148 150 8
148 152 3
148 154 3
148 155 2
148 156 7
148 158 7
148 160 10
148 164 2
148 167 8
148 171 7
148 175 5
148 181 8
148 190 8
148 192 6
148 193 9
148 196 4
148 205 1
148 206 3
148 213 5
148 223 5
148 228 7
148 239 8
148 242 2
148 247 7
148 256 5
148 259 9
148 260 8
148 261 5
148 268 5
148 269 3
148 270 7
148 272 5
148 273 4
148 277 6
148 279 3
148 286 7
148 290 5
148 292 6
148 299 8
148 300 4
149 150 5
149 151 9
149 153 8
149 154 10
149 158 2
149 163 8
149 169 5
149 173 9
149 174 1
149 176 9
149 178 4
149 184 10
149 190 1
149 192 5
149 193 9
149 196 1
149 202 2
149 205 9
149 210 9
149 213 5
149 214 1
149 217 5
149 218 10
149 220 7
149 223 1
149 225 4
149 226 7
149 227 9
149 228 3
149 237 9
149 243 9
149 248 3
149 249 8
149 254 4
149 255 10
149 257 1
149 261 7
149 265 3
149 266 9
149 267 8
149 268 3
149 271 10
149 278 1
149 280 2
149 281 7
149 285 1
149 288 8
149 291 10
149 296 7
149 299 10
150 155 5
150 159 9
150 164 1
150 165 6
150 169 2
150 170 9
150 171 2
150 175 4
150 178 5
150 180 8
150 181 1
150 187 8
150 191 1
150 192 4
150 193 10
150 195 5
150 200 6
150 210 4
150 216 6
150 223 3
150 231 4
150 236 6
150 238 10
150 242 8
150 245 2
150 246 9
150 248 7
150 253 9
150 254 1
150 259 4
150 262 9
150 263 9
150 268 7
150 271 7
150 272 10
150 275 7
150 279 9
150 285 8
150 288 9
150 293 7
150 295 6
150 296 6
150 298 10
151 152 6
151 153 3
151 154 3
151 155 5
151 163 4
151 166 5
151 167 6
151 170 5
151 171 7
151 172 7
151 173 2
151 175 7
151 177 5
151 181 9
151 188 5
151 191 5
151 193 9
151 197 5
151 201 10
151 202 3
151 203 8
151 205 4
151 207 10
151 210 10
151 211 7
151 216 4
151 218 10
151 223 9
151 224 5
151 227 5
151 230 3
151 233 9
151 236 2
151 240 6
151 246 4
151 248 4
151 252 6
151 256 1
151 259 5
151 261 3
151 264 10
151 266 9
151 267 4
151 269 6
151 271 4
151 273 9
151 276 9
151 280 6
151 285 9
151 290 4
151 295 2
151 296 7
151 299 8
152 153 9
152 154 8
152 158 8
152 173 6
152 176 7
152 177 1
152 184 1
152 186 10
152 188 9
152 195 4
152 198 2
152 199 9
152 200 4
152 202 9
152 203 5
152 207 4
152 215 5
152 218 8
152 220 1
152 222 1
152 223 7
152 224 10
152 225 10
152 228 1
152 231 4
152 248 3
152 249 1
152 250 1
152 252 8
152 259 5
152 262 9
152 263 8
152 264 1
152 267 3
152 269 10
152 271 8
152 272 2
152 273 8
152 276 9
152 278 2
152 280 7
152 283 10
152 286 1
152 287 7
152 288 9
152 292 5
152 293 3
152 295 8
152 298 8
152 300 8
153 154 2
153 156 1
153 157 3
153 158 5
153 162 5
153 163 5
153 165 10
153 166 7
153 174 5
153 178 2
153 179 2
153 181 1
153 187 6
153 189 10
153 190 9
153 191 1
153 192 1
153 199 10
153 203 10
153 209 3
153 211 7
153 218 1
153 220 2
153 222 8
153 227 7
153 230 8
153 231 10
153 232 5
153 233 4
153 236 2
153 238 5
153 241 1
153 244 8
153 256 8
153 258 2
153 261 9
153 269 5
153 275 6
153 280 1
153 281 1
153 287 9
153 292 1
153 294 4
154 156 1
154 158 4
154 160 3
154 162 7
154 168 7
154 177 10
154 181 8
154 184 5
154 186 4
154 189 7
154 191 8
154 193 5
154 195 9
154 196 2
154 197 10
154 202 6
154 203 6
154 205 4
154 209 8
154 212 8
154 221 8
154 224 2
154 226 2
154 234 7
154 235 10
154 236 6
154 239 7
154 241 6
154 242 4
154 244 4
154 246 5
154 247 2
154 249 6
154 250 6
154 255 2
154 257 5
154 258 9
154 259 5
154 261 8
154 262 4
154 265 4
154 267 9
154 276 2
154 281 3
154 285 6
154 290 7
154 294 4
154 296 1
154 300 5
155 157 5
155 158 2
155 162 5
155 166 6
155 171 4
155 177 8
155 179 8
155 186 6
155 187 8
155 188 5
155 202 9
155 206 9
155 207 1
155 208 3
155 209 3
155 213 8
155 214 5
155 221 1
155 226 10
155 230 8
155 232 9
155 234 4
155 240 4
155 243 7
155 245 9
155 255 9
155 261 1
155 267 1
155 270 8
155 274 9
155 278 5
155 283 8
155 284 9
155 285 6
155 290 9
155 291 10
155 294 9
155 297 2
155 298 2
155 299 7
156 162 9
156 163 4
156 166 10
156 167 1
156 168 2
156 175 5
156 177 8
156 184 3
156 185 5
156 188 9
156 189 1
156 192 1
156 196 8
156 197 3
156 200 1
156 202 10
156 204 7
156 210 2
156 211 7
156 212 8
156 213 4
156 214 10
156 216 5
156 218 3
156 219 7
156 220 5
156 223 3
156 230 8
156 233 3
156 234 7
156 237 6
156 238 6
156 240 3
156 242 7
156 243 3
156 252 1
156 254 1
156 267 6
156 270 3
156 271 9
156 273 3
156 275 4
156 278 2
156 283 4
156 284 8
156 285 4
156 286 7
156 291 7
156 292 5
156 296 3
156 297 1
156 298 10
157 172 4
157 174 7
157 179 9
157 186 1
157 187 6
157 200 8
157 201 8
157 211 8
157 222 4
157 224 2
157 225 8
157 227 9
157 231 9
157 233 10
157 239 8
157 249 1
157 251 7
157 254 8
157 262 6
157 264 4
157 265 8
157 266 10
157 269 7
157 271 4
157 273 6
157 274 8
157 278 6
157 296 4
157 297 9
157 300 10
158 164 9
158 167 8
158 174 7
158 175 8
158 181 2
158 195 4
158 202 3
158 207 10
158 212 3
158 213 9
158 215 6
158 221 10
158 222 9
158 223 9
158 229 4
158 231 7
158 244 5
158 245 1
158 246 5
158 249 1
158 254 1
158 256 6
158 259 4
158 264 3
158 266 2
158 272 9
158 277 8
158 283 3
158 284 7
158 285 8
158 286 1
158 287 7
158 288 9
158 298 3
159 166 7
159 167 6
159 168 7
159 175 6
159 178 8
159 187 5
159 189 5
159 193 10
159 197 4
159 200 5
159 202 2
159 204 3
159 211 7
159 226 7
159 230 6
159 233 9
159 236 7
159 240 7
159 248 6
159 253 4
159 255 4
159 256 3
159 261 5
159 263 8
159 267 5
159 269 1
159 271 1
159 272 7
159 282 5
159 286 4
159 288 1
159 289 4
159 294 2
159 295 8
159 296 2
159 298 9
159 299 5
160 161 2
160 165 5
160 166 6
160 168 1
160 169 10
160 171 4
160 176 9
160 178 9
160 182 10
160 185 6
160 187 6
160 189 9
160 194 8
160 196 4
160 197 4
160 198 8
160 201 3
160 203 7
160 205 4
160 206 3
160 215 7
160 220 3
160 226 2
160 227 3
160 228 3
160 229 6
160 242 9
160 256 2
160 261 6
160 267 7
160 268 5
160 269 3
160 277 2
160 278 5
160 281 3
160 282 2
160 289 1
160 297 1
160 298 2
161 165 10
161 166 5
161 168 4
161 169 8
161 172 2
161 177 3
161 187 2
161 192 6
161 202 10
161 206 10
161 208 7
161 209 5
161 212 8
161 221 10
161 224 1
161 226 9
161 230 5
161 236 2
161 237 10
161 241 6
161 243 3
161 245 5
161 246 8
161 249 1
161 250 4
161 252 4
161 256 1
161 258 5
161 262 9
161 265 4
161 266 3
161 267 6
161 269 5
161 271 8
161 273 2
161 274 4
161 289 10
161 292 2
161 298 10
161 300 4
162 163 10
162 168 6
162 169 5
162 171 8
162 176 8
162 180 2
162 181 9
162 184 3
162 187 5
162 196 4
162 201 10
162 202 9
162 211 2
162 216 8
162 219 7
162 220 1
162 222 3
162 223 3
162 232 4
162 235 8
162 239 10
162 245 7
162 250 5
162 254 3
162 263 7
162 268 4
162 274 3
162 275 1
162 277 10
162 278 1
162 281 10
162 282 3
162 283 6
162 294 3
162 296 10
162 298 10
163 164 5
163 167 7
163 168 1
163 170 6
163 175 7
163 178 1
163 189 4
163 194 10
163 195 3
163 196 3
163 200 1
163 201 9
163 205 3
163 207 3
163 213 9
163 215 8
163 218 8
163 221 2
163 223 5
163 230 9
163 233 4
163 237 5
163 238 5
163 241 3
163 242 4
163 254 3
163 255 2
163 259 10
163 261 10
163 265 10
163 271 1
163 275 1
163 276 10
163 277 5
163 281 3
163 283 7
163 284 8
163 292 7
163 293 8
163 294 3
163 295 5
163 298 2
164 165 6
164 166 1
164 175 10
164 180 5
164 182 2
164 184 2
164 185 1
164 188 4
164 191 6
164 194 7
164 197 2
164 198 5
164 199 10
164 200 6
164 206 4
164 215 5
164 220 7
164 221 7
164 223 2
164 225 8
164 227 5
164 230 10
164 234 9
164 241 5
164 243 6
164 245 7
164 246 6
164 249 9
164 251 10
164 257 1
164 259 2
164 273 8
164 277 5
164 279 6
164 287 4
164 292 4
164 293 6
164 294 4
164 298 1
164 300 7
165 166 9
165 169 4
165 172 6
165 174 5
165 177 5
165 179 9
165 181 3
165 182 5
165 183 1
165 187 9
165 191 5
165 195 9
165 196 10
165 197 1
165 199 10
165 201 1
165 204 9
165 208 6
165 214 4
165 222 7
165 235 4
165 236 4
165 240 6
165 242 1
165 248 5
165 249 4
165 250 8
165 251 6
165 252 1
165 262 4
165 263 8
165 264 3
165 270 9
165 276 8
165 279 2
165 287 8
165 295 7
165 296 7
166 174 10
166 176 5
166 177 5
166 180 2
166 188 8
166 191 8
166 192 9
166 196 4
166 198 10
166 200 2
166 202 3
166 203 10
166 207 5
166 208 1
166 210 3
166 212 6
166 215 7
166 217 1
166 219 6
166 222 7
166 223 4
166 225 7
166 229 4
166 231 9
166 238 3
166 239 3
166 240 8
166 242 9
166 249 4
166 254 1
166 261 10
166 263 9
166 264 2
166 269 6
166 270 2
166 274 9
166 277 8
166 278 8
166 279 9
166 282 7
166 293 7
167 174 2
167 187 1
167 191 8
167 193 10
167 199 9
167 203 3
167 204 3
167 208 7
167 210 1
167 211 1
167 215 7
167 216 10
167 219 3
167 226 2
167 231 9
167 236 7
167 237 1
167 243 7
167 245 10
167 258 8
167 262 9
167 268 9
167 277 3
167 283 9
167 288 8
167 298 9
168 169 4
168 171 10
168 172 10
168 174 7
168 175 4
168 177 6
168 180 5
168 186 8
168 189 8
168 190 2
168 192 9
168 197 9
168 202 3
168 203 5
168 210 9
168 214 2
168 215 2
168 216 1
168 218 1
168 219 3
168 221 9
168 223 8
168 225 2
168 226 7
168 230 2
168 245 3
168 246 10
168 249 3
168 251 4
168 255 9
168 257 8
168 260 2
168 263 10
168 272 9
168 275 3
168 276 8
168 282 4
168 289 7
168 290 7
168 292 2
168 300 8
169 171 7
169 173 4
169 177 8
169 178 7
169 184 8
169 187 6
169 188 2
169 189 6
169 194 2
169 198 2
169 200 1
169 210 5
169 211 8
169 215 10
169 223 5
169 225 4
169 227 9
169 228 8
169 230 2
169 232 2
169 234 10
169 238 6
169 239 10
169 240 2
169 243 4
169 254 2
169 257 4
169 266 7
169 267 6
169 268 1
169 275 2
169 276 10
169 279 1
169 281 6
169 282 2
169 283 5
169 286 2
169 297 4
169 300 8
170 171 2
170 173 3
170 177 10
170 179 2
170 183 3
170 186 6
170 187 6
170 194 3
170 195 3
170 198 8
170 199 8
170 202 7
170 203 7
170 208 3
170 213 9
170 215 9
170 217 2
170 219 8
170 220 6
170 224 6
170 226 7
170 228 10
170 231 2
170 232 7
170 233 4
170 234 7
170 236 7
170 237 1
170 246 2
170 248 7
170 249 6
170 250 1
170 258 9
170 259 9
170 261 4
170 264 8
170 265 1
170 266 3
170 268 9
170 274 6
170 275 5
170 281 6
170 283 8
170 290 6
170 291 5
170 293 8
170 296 5
170 297 8
171 178 10
171 180 8
171 181 4
171 187 3
171 191 1
171 192 10
171 203 4
171 217 3
171 222 3
171 223 6
171 224 3
171 225 7
171 235 5
171 240 4
171 241 7
171 242 7
171 250 7
171 253 7
171 256 6
171 258 4
171 261 8
171 262 7
171 266 6
171 271 9
171 272 8
171 274 5
171 277 2
171 278 8
171 280 5
171 283 2
171 284 2
171 289 8
171 295 3
171 298 4
172 178 7
172 179 5
172 185 5
172 186 2
172 188 9
172 190 3
172 192 3
172 196 10
172 200 6
172 201 5
172 202 8
172 204 7
172 205 10
172 212 3
172 213 7
172 215 3
172 216 2
172 220 5
172 222 2
172 224 3
172 226 5
172 230 6
172 232 8
172 237 2
172 254 9
172 256 6
172 258 9
172 259 9
172 261 9
172 262 7
172 273 5
172 274 3
172 279 6
172 284 7
172 286 8
172 290 10
172 293 10
172 294 4
172 295 9
172 296 6
172 298 9
172 299 7
173 178 7
173 179 3
173 184 2
173 185 6
173 187 4
173 189 10
173 193 3
173 196 1
173 200 5
173 202 4
173 203 8
173 204 8
173 207 2
173 212 5
173 214 1
173 217 5
173 222 9
173 223 3
173 224 9
173 225 10
173 227 4
173 230 1
173 235 3
173 238 9
173 239 2
173 243 6
173 244 6
173 245 1
173 248 1
173 249 7
173 252 2
173 253 4
173 255 7
173 260 5
173 262 10
173 264 8
173 265 2
173 276 1
173 279 10
173 281 4
173 282 3
173 291 5
173 295 2
173 296 4
173 299 3
173 300 5
174 175 9
174 180 3
174 181 4
174 182 1
174 183 6
174 184 8
174 186 6
174 190 3
174 193 10
174 196 7
174 197 3
174 198 4
174 201 9
174 203 6
174 206 4
174 209 3
174 210 3
174 213 8
174 222 3
174 226 10
174 229 4
174 232 6
174 235 6
174 241 1
174 244 8
174 245 6
174 246 4
174 247 8
174 251 8
174 255 5
174 256 1
174 259 2
174 263 7
174 269 6
174 271 7
174 273 9
174 274 5
174 275 10
174 276 3
174 279 4
174 285 8
174 288 5
174 294 1
174 296 8
174 299 5
175 178 7
175 184 10
175 185 6
175 187 6
175 189 3
175 197 10
175 198 1
175 202 3
175 203 8
175 207 6
175 208 8
175 209 1
175 210 1
175 213 8
175 215 7
175 216 9
175 217 10
175 221 2
175 222 2
175 231 3
175 234 4
175 243 3
175 246 1
175 251 6
175 252 2
175 254 7
175 256 1
175 257 1
175 258 8
175 269 9
175 271 6
175 276 6
175 278 7
175 279 3
175 292 8
175 298 8
176 178 8
176 180 2
176 184 6
176 187 3
176 191 6
176 197 8
176 200 8
176 203 5
176 205 6
176 210 3
176 211 9
176 213 6
176 214 6
176 219 9
176 223 3
176 228 6
176 232 5
176 233 8
176 234 10
176 236 1
176 239 6
176 246 5
176 248 7
176 251 5
176 255 10
176 258 2
176 276 3
176 281 3
176 290 7
176 295 2
176 300 3
177 186 7
177 187 7
177 188 5
177 193 8
177 194 9
177 195 8
177 196 10
177 197 5
177 199 9
177 203 10
177 207 6
177 212 5
177 218 8
177 221 2
177 226 8
177 230 1
177 231 4
177 232 5
177 235 7
177 239 4
177 241 4
177 249 1
177 250 8
177 255 2
177 256 9
177 259 3
177 262 9
177 266 2
177 267 7
177 268 10
177 273 5
177 275 10
177 280 7
177 287 3
177 289 7
177 295 9
177 297 1
178 180 7
178 185 9
178 186 5
178 188 9
178 197 5
178 200 6
178 205 1
178 208 10
178 215 4
178 218 2
178 220 8
178 224 7
178 226 3
178 227 9
178 231 8
178 232 7
178 234 8
178 238 1
178 240 2
178 246 5
178 250 8
178 257 6
178 264 6
178 276 4
178 277 2
178 282 5
178 286 6
178 288 10
178 289 6
178 296 8
178 298 10
179 183 7
179 184 8
179 195 7
179 199 2
179 201 7
179 209 6
179 211 9
179 217 3
179 219 10
179 220 5
179 221 7
179 231 8
179 232 4
179 240 10
179 241 5
179 242 3
179 244 3
179 251 8
179 254 8
179 255 6
179 256 4
179 262 10
179 264 9
179 269 8
179 270 3
179 271 6
179 274 6
179 277 7
179 280 1
179 282 5
179 285 5
179 286 2
179 290 5
179 300 6
180 181 1
180 192 1
180 198 9
180 199 1
180 201 10
180 204 4
180 212 3
180 213 5
180 214 7
180 223 10
180 227 4
180 228 5
180 230 5
180 233 5
180 234 4
180 239 2
180 247 5
180 252 7
180 255 4
180 256 1
180 257 2
180 258 6
180 262 10
180 264 4
180 267 3
180 268 4
180 270 10
180 277 10
180 278 9
180 280 8
180 281 9
180 282 2
180 283 4
180 291 9
180 293 2
180 295 10
180 296 5
180 298 5
181 182 5
181 183 1
181 184 5
181 185 10
181 187 9
181 188 10
181 192 8
181 194 5
181 196 10
181 198 5
181 201 9
181 203 3
181 210 1
181 212 1
181 214 8
181 216 2
181 220 1
181 222 1
181 224 4
181 235 6
181 236 4
181 237 1
181 241 2
181 246 2
181 253 7
181 256 2
181 262 4
181 264 9
181 267 7
181 271 8
181 279 10
181 280 6
181 285 3
181 286 10
181 287 9
181 288 2
181 289 3
181 293 1
181 294 3
181 296 6
181 298 9
182 188 9
182 190 4
182 192 4
182 193 3
182 197 1
182 200 10
182 202 1
182 204 5
182 210 1
182 217 3
182 219 10
182 223 3
182 227 9
182 236 10
182 237 7
182 242 3
182 247 6
182 249 9
182 253 6
182 258 4
182 260 5
182 261 7
182 266 7
182 271 8
182 272 7
182 274 5
182 277 1
182 282 7
182 289 10
182 291 7
183 185 8
183 192 1
183 199 9
183 211 9
183 213 7
183 215 2
183 217 4
183 225 4
183 228 6
183 235 2
183 237 5
183 240 2
183 242 9
183 244 3
183 246 7
183 247 7
183 251 10
183 254 7
183 256 3
183 257 1
183 260 6
183 261 9
183 264 4
183 268 2
183 269 5
183 270 7
183 271 10
183 277 5
183 278 9
183 283 1
183 284 4
183 285 1
183 289 4
183 292 6
183 293 9
183 295 7
183 298 9
184 186 6
184 188 9
184 193 5
184 195 2
184 198 9
184 201 9
184 205 5
184 212 3
184 216 1
184 217 2
184 219 4
184 222 6
184 223 6
184 225 1
184 226 10
184 227 5
184 230 3
184 233 8
184 234 8
184 242 2
184 245 2
184 247 4
184 256 7
184 263 2
184 264 5
184 271 4
184 273 7
184 275 4
184 277 7
184 286 1
184 287 9
184 288 5
184 293 7
184 296 9
184 298 2
185 190 5
185 193 10
185 213 1
185 215 5
185 216 4
185 217 1
185 223 7
185 224 9
185 226 10
185 233 9
185 234 7
185 235 3
185 239 7
185 242 9
185 243 3
185 250 9
185 251 7
185 252 10
185 258 4
185 262 2
185 268 10
185 269 10
185 273 7
185 276 8
185 277 1
185 282 9
185 284 6
185 290 8
185 296 1
185 298 5
186 187 3
186 188 9
186 193 5
186 194 5
186 196 4
186 201 6
186 209 1
186 212 3
186 226 5
186 230 1
186 232 9
186 233 2
186 234 9
186 237 5
186 243 6
186 248 1
186 249 7
186 253 2
186 256 1
186 259 2
186 260 5
186 263 9
186 264 5
186 265 2
186 267 9
186 269 9
186 272 9
186 275 9
186 281 3
186 282 5
186 287 2
186 289 4
186 290 2
186 291 5
186 294 9
186 298 2
186 299 7
186 300 3
187 191 9
187 194 5
187 195 3
187 199 3
187 205 10
187 207 3
187 208 10
187 218 4
187 222 6
187 224 3
187 225 7
187 228 6
187 230 6
187 236 4
187 241 6
187 243 10
187 245 8
187 247 5
187 248 5
187 251 1
187 254 2
187 257 2
187 261 5
187 264 2
187 269 6
187 274 7
187 278 3
187 281 6
187 282 1
187 287 6
187 288 10
187 293 8
188 205 3
188 206 8
188 209 7
188 215 2
188 218 1
188 220 4
188 223 8
188 224 9
188 227 7
188 229 3
188 234 8
188 238 9
188 239 5
188 247 7
188 249 3
188 253 2
188 261 8
188 267 9
188 269 4
188 271 1
188 276 5
188 278 8
188 280 2
188 286 5
188 287 6
188 288 4
188 289 1
189 191 3
189 192 1
189 198 8
189 199 3
189 200 3
189 201 3
189 202 1
189 204 7
189 208 7
189 210 4
189 213 10
189 220 5
189 222 9
189 227 4
189 233 1
189 234 7
189 236 6
189 238 9
189 240 10
189 246 1
189 263 8
189 268 5
189 269 6
189 271 10
189 272 3
189 274 5
189 275 8
189 283 7
189 286 6
189 291 8
189 293 4
189 297 10
190 191 2
190 196 1
190 205 7
190 206 6
190 217 3
190 221 8
190 222 5
190 223 2
190 225 2
190 226 9
190 228 3
190 231 6
190 234 4
190 235 1
190 238 1
190 241 1
190 243 5
190 246 4
190 254 10
190 264 6
190 265 1
190 268 1
190 269 3
190 270 7
190 274 5
190 276 7
190 278 8
190 279 5
190 282 2
190 285 1
190 287 2
190 289 1
190 292 2
190 297 8
191 194 8
191 196 2
191 199 2
191 201 10
191 205 1
191 207 1
191 212 7
191 221 1
191 222 3
191 228 7
191 230 5
191 232 4
191 235 4
191 240 6
191 244 9
191 246 9
191 250 4
191 251 4
191 253 7
191 262 2
191 268 10
191 269 8
191 274 3
191 275 9
191 277 3
191 281 10
191 284 8
191 285 7
191 287 4
191 296 6
191 299 5
191 300 10
192 203 6
192 204 5
192 207 1
192 210 1
192 211 1
192 212 2
192 213 10
192 217 8
192 225 7
192 227 1
192 230 2
192 234 6
192 236 5
192 237 2
192 239 1
192 240 9
192 244 1
192 245 8
192 247 9
192 250 3
192 256 2
192 261 2
192 263 1
192 268 1
192 271 9
192 275 4
192 276 4
192 280 10
192 284 9
192 286 10
192 292 10
192 294 3
193 202 6
193 204 2
193 212 4
193 214 1
193 215 4
193 216 8
193 217 9
193 220 10
193 222 7
193 228 3
193 229 9
193 232 6
193 237 5
193 238 8
193 241 3
193 246 7
193 247 7
193 248 4
193 249 2
193 257 1
193 259 8
193 261 8
193 263 4
193 267 10
193 269 9
193 274 9
193 276 4
193 285 4
193 286 6
193 288 8
193 294 9
193 295 2
194 196 3
194 197 1
194 203 7
194 208 3
194 213 5
194 214 3
194 215 3
194 222 1
194 226 2
194 229 6
194 230 9
194 234 6
194 235 2
194 239 8
194 241 1
194 244 6
194 246 10
194 249 7
194 250 2
194 253 7
194 258 10
194 260 5
194 266 4
194 267 2
194 271 3
194 274 9
194 281 6
194 282 3
194 292 2
194 293 9
194 295 1
194 300 9
195 196 2
195 199 10
195 200 8
195 204 10
195 206 10
195 208 1
195 210 5
195 211 3
195 215 7
195 219 7
195 223 6
195 227 3
195 231 7
195 234 7
195 240 1
195 243 5
195 245 8
195 246 10
195 247 1
195 252 5
195 253 9
195 267 5
195 270 9
195 272 1
195 273 6
195 283 6
195 287 6
195 289 9
195 290 4
195 291 3
195 292 4
195 293 7
195 294 6
195 298 5
195 299 8
196 197 5
196 200 6
196 202 1
196 203 9
196 204 8
196 205 7
196 213 1
196 218 8
196 227 7
196 229 2
196 230 4
196 234 7
196 237 3
196 239 1
196 244 9
196 249 2
196 250 5
196 252 10
196 257 4
196 259 5
196 262 7
196 276 4
196 280 4
196 281 8
196 282 7
196 286 8
196 294 4
197 201 9
197 211 5
197 217 4
197 219 5
197 229 1
197 242 7
197 252 4
197 253 9
197 254 1
197 256 4
197 259 2
197 260 8
197 265 4
197 266 5
197 271 9
197 272 4
197 275 10
197 279 5
197 280 3
197 285 1
197 287 10
197 292 4
197 297 2
198 199 1
198 216 9
198 222 9
198 224 7
198 225 6
198 228 3
198 230 6
198 239 2
198 241 9
198 242 5
198 246 4
198 252 7
198 253 5
198 258 4
198 262 6
198 267 3
198 269 1
198 270 7
198 275 6
198 276 3
198 278 9
198 281 7
198 282 3
198 283 6
198 284 10
198 286 6
198 288 4
198 289 5
198 290 5
198 293 10
198 294 5
198 295 5
198 296 2
198 297 5
198 300 6
199 203 3
199 207 2
199 209 6
199 211 6
199 214 7
199 218 1
199 219 9
199 220 10
199 223 8
199 226 3
199 233 5
199 234 3
199 236 4
199 239 5
199 240 4
199 247 3
199 255 3
199 256 10
199 257 8
199 260 7
199 262 8
199 265 1
199 270 4
199 273 9
199 281 9
199 290 7
199 291 7
199 292 6
199 299 9
200 202 7
200 205 10
200 213 3
200 215 3
200 217 6
200 222 10
200 226 3
200 227 5
200 230 1
200 236 2
200 238 6
200 240 1
200 247 7
200 251 6
200 263 7
200 265 6
200 266 9
200 267 5
200 271 6
200 275 6
200 279 4
200 285 6
200 286 9
200 289 2
200 292 7
200 296 8
201 202 8
201 204 9
201 205 6
201 206 9
201 211 4
201 214 5
201 225 3
201 227 9
201 230 8
201 231 4
201 232 7
201 235 9
201 240 4
201 242 10
201 244 4
201 246 6
201 248 9
201 249 6
201 252 7
201 254 7
201 255 10
201 256 3
201 258 9
201 260 1
201 269 5
201 274 1
201 275 10
201 276 4
201 280 10
201 285 2
201 288 10
201 293 10
201 295 2
201 298 10
202 203 7
202 211 2
202 222 9
202 223 2
202 224 1
202 225 3
202 226 1
202 231 7
202 232 4
202 235 3
202 236 10
202 239 5
202 243 1
202 252 6
202 254 9
202 260 8
202 262 7
202 263 8
202 267 3
202 270 7
202 271 7
202 278 7
202 280 2
202 292 2
202 296 6
202 299 5
202 300 6
203 209 8
203 213 7
203 214 7
203 229 1
203 232 5
203 236 10
203 237 7
203 238 7
203 240 8
203 245 9
203 251 1
203 261 8
203 267 4
203 272 8
203 274 10
203 278 6
203 279 7
203 280 2
203 283 4
203 290 6
203 292 1
203 294 4
203 296 9
203 297 10
203 298 5
203 300 2
204 214 5
204 219 8
204 223 9
204 231 8
204 232 4
204 233 7
204 234 2
204 236 8
204 237 9
204 242 1
204 244 3
204 245 8
204 248 10
204 249 6
204 254 8
204 256 3
204 257 4
204 261 3
204 263 2
204 264 4
204 268 1
204 269 4
204 271 3
204 273 10
204 281 1
204 285 7
204 287 9
204 288 9
204 292 9
204 299 8
205 213 1
205 215 10
205 217 1
205 219 8
205 221 9
205 222 1
205 225 5
205 226 6
205 227 9
205 231 1
205 232 8
205 233 7
205 234 4
205 235 8
205 242 4
205 244 4
205 248 4
205 252 7
205 263 2
205 264 2
205 267 6
205 269 6
205 275 5
205 276 8
205 277 2
205 278 9
205 285 9
205 286 5
205 291 9
205 295 9
206 208 4
206 210 7
206 215 1
206 217 4
206 220 7
206 224 7
206 225 1
206 228 7
206 230 3
206 234 8
206 240 7
206 253 5
206 256 1
206 257 1
206 260 7
206 261 6
206 263 7
206 265 9
206 266 6
206 278 8
206 286 9
206 288 2
206 289 9
206 290 9
206 293 9
206 294 7
206 297 1
206 298 9
207 208 8
207 213 3
207 220 10
207 225 4
207 230 2
207 234 4
207 235 6
207 239 10
207 249 5
207 250 7
207 254 2
207 257 7
207 259 4
207 261 5
207 264 4
207 266 6
207 267 1
207 268 2
207 272 5
207 275 1
207 276 10
207 279 1
207 280 6
207 285 6
207 292 10
207 296 8
207 297 8
207 300 4
208 210 1
208 222 3
208 223 7
208 228 10
208 238 8
208 240 8
208 241 5
208 245 3
208 246 8
208 251 1
208 257 10
208 260 2
208 263 6
208 267 5
208 278 4
208 281 7
208 282 4
208 286 10
208 289 3
208 291 5
208 292 9
208 293 4
208 297 1
209 211 1
209 212 9
209 225 10
209 226 6
209 238 6
209 239 1
209 244 2
209 245 1
209 255 8
209 264 5
209 265 6
209 268 5
209 269 7
209 270 2
209 273 10
209 274 6
209 277 3
209 279 7
209 280 4
209 281 2
209 283 7
209 286 9
209 289 1
210 213 5
210 218 1
210 219 9
210 222 9
210 225 2
210 226 4
210 227 9
210 229 9
210 237 7
210 238 4
210 243 5
210 244 3
210 245 3
210 249 1
210 252 10
210 254 9
210 257 7
210 268 6
210 269 10
210 272 6
210 291 9
210 294 7
210 300 1
211 212 9
211 221 3
211 222 2
211 223 6
211 226 6
211 233 3
211 234 5
211 237 4
211 240 5
211 241 6
211 243 1
211 244 9
211 248 6
211 249 6
211 250 2
211 251 2
211 256 6
211 257 6
211 258 8
211 261 5
211 263 10
211 279 3
211 281 9
211 282 10
211 289 7
211 292 10
211 293 10
211 296 4
211 298 2
211 299 6
212 215 10
212 218 6
212 219 3
212 220 2
212 231 10
212 232 9
212 233 1
212 235 7
212 243 6
212 245 10
212 247 10
212 250 3
212 257 7
212 258 10
212 264 3
212 266 8
212 267 3
212 269 7
212 270 2
212 271 4
212 274 8
212 277 2
212 283 4
212 285 5
212 289 7
212 291 5
212 294 9
212 295 1
212 296 10
212 297 5
212 298 6
212 299 9
213 214 6
213 219 3
213 222 2
213 223 2
213 225 10
213 227 10
213 229 5
213 232 1
213 235 7
213 237 3
213 246 8
213 248 1
213 249 5
213 250 6
213 256 9
213 257 5
213 263 4
213 265 3
213 267 5
213 271 9
213 272 10
213 274 4
213 276 3
213 279 2
213 280 10
213 283 2
213 284 1
213 292 9
213 296 9
213 297 6
213 298 4
213 300 3
214 217 2
214 219 4
214 220 10
214 221 6
214 224 2
214 238 2
214 243 4
214 246 8
214 252 4
214 255 8
214 257 6
214 262 2
214 265 3
214 272 7
214 278 9
214 280 6
214 283 7
214 287 7
214 291 8
214 293 1
215 220 1
215 228 5
215 230 3
215 232 4
215 233 9
215 237 4
215 238 6
215 241 5
215 244 3
215 246 4
215 249 7
215 250 2
215 252 2
215 257 2
215 258 5
215 259 1
215 272 8
215 277 6
215 280 3
215 281 4
215 285 2
215 286 6
215 292 7
215 294 8
215 296 3
215 297 3
215 300 4
216 219 8
216 220 6
216 222 5
216 227 1
216 228 1
216 229 6
216 230 10
216 231 3
216 232 5
216 233 8
216 237 10
216 243 3
216 244 1
216 245 4
216 247 8
216 248 9
216 250 7
216 252 9
216 258 10
216 262 2
216 266 5
216 268 4
216 269 5
216 271 10
216 274 1
216 275 9
216 282 4
216 283 10
216 290 10
216 291 9
216 292 5
216 293 9
217 218 6
217 225 5
217 227 8
217 229 4
217 232 4
217 234 4
217 236 6
217 240 10
217 242 1
217 245 3
217 246 3
217 250 8
217 256 7
217 257 4
217 258 1
217 259 4
217 260 6
217 261 10
217 263 2
217 266 7
217 269 1
217 279 2
217 282 7
217 289 6
217 291 3
218 221 8
218 222 1
218 225 10
218 226 2
218 232 7
218 234 8
218 238 1
218 239 8
218 240 1
218 244 6
218 248 6
218 249 3
218 250 10
218 254 9
218 258 9
218 266 1
218 271 2
218 272 4
218 275 1
218 281 9
218 285 4
218 288 7
218 291 1
218 299 10
219 223 5
219 224 7
219 228 7
219 234 7
219 243 8
219 245 4
219 248 4
219 249 3
219 253 9
219 261 2
219 265 1
219 266 2
219 270 1
219 271 10
219 275 1
219 280 7
219 282 9
219 284 1
219 287 3
219 288 9
219 290 1
219 292 9
219 293 5
219 295 1
219 297 9
219 298 8
220 224 4
220 226 2
220 227 4
220 228 7
220 232 8
220 242 4
220 243 6
220 247 5
220 251 2
220 253 5
220 256 6
220 258 9
220 267 5
220 271 2
220 274 7
220 276 4
220 282 3
220 294 8
220 297 4
220 298 7
220 299 9
221 232 8
221 233 5
221 235 1
221 237 9
221 244 5
221 247 7
221 248 6
221 256 7
221 259 4
221 267 10
221 268 10
221 271 8
221 272 6
221 274 7
221 283 4
221 285 9
221 287 6
221 289 8
221 295 7
221 297 9
221 298 10
221 299 4
222 224 7
222 228 6
222 229 7
222 235 9
222 238 5
222 239 2
222 240 1
222 247 8
222 253 8
222 257 1
222 273 10
222 274 8
222 277 7
222 278 1
222 279 7
222 280 2
222 287 8
222 293 7
222 294 4
222 295 5
222 300 10
223 224 9
223 225 3
223 230 10
223 234 5
223 236 8
223 238 5
223 243 9
223 244 4
223 254 10
223 258 8
223 265 3
223 271 8
223 272 10
223 275 6
223 277 3
223 284 4
223 285 3
223 286 3
223 292 8
223 294 1
224 226 9
224 227 2
224 228 4
224 236 7
224 238 4
224 241 1
224 247 2
224 250 4
224 253 9
224 256 2
224 257 4
224 261 10
224 264 10
224 267 2
224 270 1
224 278 2
224 281 4
224 282 4
224 291 6
224 293 2
224 294 2
224 296 8
224 299 5
225 228 10
225 229 3
225 230 3
225 233 5
225 237 6
225 247 6
225 253 1
225 258 1
225 264 8
225 267 5
225 273 4
225 274 9
225 279 2
225 284 6
225 285 10
225 287 10
225 288 6
225 292 4
225 297 3
225 298 10
225 300 8
226 227 2
226 228 3
226 229 9
226 230 5
226 231 5
226 235 10
226 236 2
226 237 3
226 243 7
226 244 8
226 245 8
226 251 4
226 253 4
226 255 1
226 262 1
226 265 6
226 273 10
226 280 4
226 283 7
226 286 2
226 287 2
226 291 10
226 292 6
226 293 2
226 294 7
226 297 8
226 300 8
227 228 4
227 230 1
227 235 3
227 240 1
227 242 8
227 243 9
227 245 7
227 249 1
227 253 1
227 255 3
227 260 9
227 262 5
227 270 9
227 272 5
227 274 2
227 275 2
227 276 1
227 278 9
227 279 8
227 280 10
227 286 2
227 289 3
227 293 6
227 296 2
227 297 8
227 299 5
228 229 9
228 232 4
228 233 5
228 235 10
228 236 4
228 239 10
228 242 9
228 245 9
228 247 3
228 249 1
228 253 2
228 255 5
228 256 3
228 258 3
228 259 3
228 260 8
228 261 1
228 264 10
228 272 8
228 275 8
228 277 10
228 280 2
228 286 8
228 290 7
228 291 6
228 296 9
229 231 1
229 232 9
229 234 2
229 236 4
229 247 3
229 257 5
229 262 1
229 271 10
229 276 5
229 279 1
229 285 8
229 286 1
229 289 6
229 290 6
229 296 10
229 298 1
230 233 7
230 241 2
230 243 4
230 246 5
230 250 6
230 252 6
230 255 4
230 257 2
230 258 7
230 261 8
230 263 1
230 275 8
230 285 3
230 288 6
230 290 3
230 291 9
230 295 2
230 296 4
231 235 4
231 236 7
231 238 5
231 240 4
231 241 3
231 242 6
231 247 2
231 248 3
231 250 7
231 252 4
231 258 4
231 260 8
231 267 5
231 269 4
231 275 6
231 279 8
231 291 9
231 297 1
231 298 9
231 299 1
232 235 2
232 237 5
232 240 3
232 247 6
232 248 4
232 249 6
232 258 4
232 260 10
232 261 3
232 266 4
232 267 5
232 277 9
232 280 4
232 284 7
232 285 4
232 286 3
232 288 9
232 290 3
232 299 7
233 234 4
233 237 6
233 238 7
233 239 6
233 240 8
233 242 3
233 249 5
233 254 7
233 255 4
233 261 8
233 264 7
233 273 8
233 278 10
233 281 4
233 286 1
233 287 5
233 289 7
233 290 7
233 292 9
233 293 6
233 295 4
234 237 7
234 238 4
234 242 1
234 243 1
234 245 3
234 247 8
234 250 3
234 255 5
234 256 3
234 258 10
234 260 2
234 261 7
234 262 1
234 263 4
234 265 6
234 266 6
234 268 1
234 275 3
234 280 6
234 282 9
234 283 2
234 285 8
234 286 3
234 288 9
234 289 10
234 290 7
234 293 9
234 295 6
234 298 7
234 300 7
235 242 1
235 249 4
235 250 6
235 260 9
235 264 4
235 266 10
235 269 6
235 270 8
235 272 10
235 274 1
235 284 3
235 286 7
235 292 4
235 294 8
235 297 8
236 239 2
236 241 4
236 250 7
236 251 10
236 258 3
236 264 9
236 265 6
236 270 2
236 277 4
236 278 10
236 287 2
236 291 6
236 293 5
236 294 10
236 296 6
237 239 2
237 243 3
237 249 10
237 250 1
237 253 6
237 255 7
237 269 10
237 278 7
237 281 8
237 288 8
237 289 1
237 290 3
237 300 2
238 240 3
238 244 6
238 253 1
238 256 3
238 258 1
238 263 1
238 265 9
238 272 1
238 274 1
238 279 6
238 282 8
238 284 3
238 296 7
238 297 2
238 298 8
238 299 5
239 245 10
239 249 3
239 250 2
239 255 10
239 256 10
239 263 2
239 266 7
239 269 2
239 274 7
239 275 10
239 276 7
239 277 1
239 280 6
239 282 7
239 285 1
239 286 9
239 288 7
239 291 3
239 297 10
239 299 1
239 300 5
240 243 1
240 246 10
240 247 4
240 248 5
240 254 8
240 255 1
240 263 7
240 264 6
240 266 1
240 269 3
240 272 6
240 273 4
240 277 5
240 279 7
240 283 10
240 285 8
240 286 10
240 288 3
240 290 10
240 293 8
240 294 7
240 300 9
241 242 2
241 254 9
241 263 7
241 265 1
241 274 10
241 276 3
241 281 5
241 282 5
241 283 7
241 285 8
241 289 8
241 291 1
241 292 4
241 299 3
242 247 10
242 249 6
242 255 2
242 258 7
242 262 5
242 266 5
242 268 1
242 271 2
242 273 7
242 275 8
242 280 3
242 289 8
243 245 2
243 249 7
243 252 9
243 254 3
243 259 6
243 260 10
243 262 4
243 263 10
243 280 7
243 281 5
243 283 7
243 287 5
243 290 10
243 294 10
243 300 6
244 249 4
244 250 1
244 251 3
244 252 6
244 254 4
244 256 7
244 261 3
244 262 9
244 266 6
244 268 10
244 270 8
244 271 5
244 273 3
244 282 1
244 283 6
244 284 6
244 285 3
244 288 3
244 292 1
244 293 7
244 297 10
245 248 8
245 252 5
245 254 1
245 255 10
245 261 7
245 263 4
245 265 3
245 268 4
245 270 5
245 272 8
245 274 8
245 284 9
245 288 3
245 290 9
245 300 5
246 248 7
246 251 7
246 260 2
246 263 7
246 264 10
246 265 2
246 268 7
246 269 7
246 273 10
246 275 5
246 276 10
246 278 2
246 282 1
246 285 7
246 290 6
246 292 5
246 299 1
246 300 3
247 261 6
247 267 8
247 268 2
247 272 4
247 275 1
247 277 3
247 278 2
247 281 2
247 283 9
247 284 10
247 294 3
247 300 6
248 255 1
248 256 6
248 259 4
248 267 5
248 269 6
248 271 6
248 275 2
248 277 8
248 284 8
248 288 3
248 290 6
248 299 5
249 251 5
249 252 5
249 253 6
249 260 4
249 263 7
249 264 7
249 267 8
249 272 1
249 273 7
249 278 8
249 279 5
249 281 2
249 283 4
249 287 9
249 288 10
249 294 7
250 251 9
250 254 7
250 255 5
250 256 3
250 257 9
250 259 7
250 269 8
250 271 4
250 272 5
250 276 1
250 279 4
250 294 7
250 297 6
251 257 1
251 258 8
251 265 10
251 267 10
251 268 2
251 269 9
251 273 4
251 280 3
251 288 7
251 291 3
251 292 3
251 294 1
251 295 1
251 297 10
251 298 3
252 253 2
252 261 6
252 262 5
252 264 8
252 269 4
252 274 4
252 277 3
252 280 8
252 281 7
252 285 3
252 289 2
253 262 6
253 263 6
253 264 7
253 266 4
253 272 2
253 280 9
253 282 6
253 284 4
253 287 5
253 291 6
253 296 9
253 300 4
254 260 4
254 262 10
254 271 9
254 273 9
254 276 6
254 277 3
254 282 9
254 286 3
254 294 1
255 258 8
255 264 1
255 266 2
255 267 2
255 270 1
255 273 8
255 276 10
255 277 9
255 280 5
255 281 3
255 283 8
255 285 4
255 288 2
255 290 8
255 298 2
256 257 1
256 259 9
256 260 9
256 262 4
256 263 10
256 266 10
256 267 4
256 272 7
256 273 4
256 277 5
256 278 10
256 279 4
256 283 6
256 290 6
256 291 7
256 295 1
256 296 2
256 298 4
257 258 2
257 265 7
257 267 7
257 274 10
257 283 6
257 287 1
257 291 3
258 259 1
258 268 9
258 269 8
258 271 5
258 273 3
258 274 3
258 275 1
258 276 2
258 278 1
258 283 4
258 286 7
258 288 8
258 289 7
258 290 8
258 294 2
258 296 2
258 299 6
259 260 10
259 261 7
259 264 7
259 271 4
259 272 2
259 273 9
259 274 10
259 279 5
259 284 10
259 288 4
259 297 7
259 298 9
260 264 1
260 265 1
260 271 4
260 273 5
260 274 6
260 279 3
260 283 8
260 285 1
260 287 1
260 291 1
260 294 3
260 295 2
260 296 5
261 269 3
261 273 9
261 275 1
261 280 2
261 285 5
261 291 6
261 292 6
261 296 6
262 264 10
262 267 3
262 274 4
262 275 7
262 276 9
262 279 1
262 283 9
262 284 9
262 288 10
262 289 6
262 293 4
262 295 2
262 297 6
262 298 5
262 300 2
263 264 8
263 265 3
263 269 2
263 277 7
263 278 3
263 280 8
263 284 5
263 295 4
263 298 10
263 299 9
263 300 3
264 265 10
264 266 3
264 269 7
264 270 8
264 272 8
264 276 2
264 288 7
264 291 4
264 293 5
264 294 8
264 295 7
264 296 10
264 297 9
264 299 7
265 266 9
265 270 9
265 276 2
265 279 4
265 285 2
265 288 4
265 289 9
265 295 6
265 296 6
265 300 8
266 275 8
266 279 9
266 283 1
266 293 3
266 296 2
266 297 7
267 268 3
267 269 10
267 272 6
267 275 3
267 276 6
267 278 4
267 280 6
267 281 8
267 286 4
267 288 2
267 290 6
267 291 7
267 292 9
267 293 2
268 270 1
268 277 8
268 280 7
268 284 10
268 285 7
268 292 3
268 293 6
269 277 1
269 278 4
269 283 10
269 284 7
269 288 9
269 295 6
269 296 2
269 299 1
270 274 2
270 282 1
270 289 10
270 291 2
270 292 4
270 296 10
271 273 10
271 276 1
271 282 6
271 284 7
271 294 5
271 296 8
271 297 6
271 299 2
272 274 2
272 284 1
272 287 1
272 288 7
272 290 4
272 292 8
272 293 9
273 274 7
273 276 7
273 282 4
273 283 4
273 285 9
273 287 3
273 289 5
273 290 8
273 291 7
273 296 2
273 298 6
274 281 9
274 282 6
274 285 10
274 287 6
274 288 5
274 289 9
274 291 7
275 280 3
275 281 3
275 283 4
275 286 6
275 287 6
275 289 3
275 292 10
275 296 10
275 297 6
275 298 5
276 280 7
276 282 9
276 284 7
276 286 8
276 287 9
276 289 6
277 278 5
277 279 7
277 287 4
277 290 5
277 296 10
277 297 5
277 300 2
278 280 1
278 282 10
278 287 10
278 288 2
278 289 1
278 291 5
278 298 6
279 280 7
279 286 9
279 287 1
279 289 7
279 292 1
279 295 2
279 297 4
279 300 5
280 283 4
280 284 10
280 285 2
280 286 3
280 289 9
280 291 2
280 295 1
281 282 7
281 283 10
281 289 1
281 292 3
281 294 10
281 298 10
281 299 1
282 290 1
283 289 5
283 294 7
283 297 1
283 300 8
284 285 7
284 288 9
284 297 3
285 287 10
285 289 4
285 294 6
285 299 9
286 287 9
286 291 7
286 296 4
286 299 3
286 300 9
287 291 7
287 293 5
287 295 9
288 290 5
288 291 6
289 290 3
289 294 1
289 297 10
290 291 5
290 294 1
290 296 4
290 298 9
290 300 9
291 299 1
292 293 3
292 298 4
292 300 6
293 296 10
293 297 4
294 297 5
294 298 9
295 296 8
295 297 1
295 299 7
296 299 4
297 300 9
298 299 6
