300 31395 1100
10
1
1
3
7
5
8
4
10
3
4
6
9
10
4
1
3
1
6
8
2
10
4
9
9
3
2
5
4
2
2
3
5
9
6
3
5
6
5
7
3
5
2
3
10
8
5
7
3
9
10
10
1
8
3
10
5
10
9
8
7
5
2
2
6
4
9
6
4
1
9
6
3
3
5
3
2
1
4
7
3
10
5
8
7
1
5
2
5
5
6
10
3
9
8
5
9
4
7
5
8
7
6
6
1
7
8
3
2
10
7
2
8
9
6
2
7
6
6
7
2
10
4
1
3
7
10
10
2
1
4
10
6
2
6
9
6
8
4
3
9
2
3
5
3
5
3
6
3
2
5
8
7
8
7
2
3
3
3
10
9
10
4
8
9
9
1
3
8
5
5
9
9
4
2
9
1
10
1
2
7
3
7
5
4
10
8
6
1
1
10
2
7
3
3
7
7
6
4
9
6
1
7
9
9
9
3
8
2
4
5
10
10
4
7
5
3
3
5
6
5
5
4
7
9
1
7
9
6
4
6
2
9
2
10
7
10
8
3
4
7
6
6
9
2
1
9
10
5
3
8
10
9
4
2
4
3
2
9
6
6
1
5
5
9
6
5
3
6
4
8
6
3
4
9
5
7
10
6
4
6
2
7
4
5
3
7
5
6
6
6
3
4
6
8
10
2
2
7
2
1 3 7
1 5 1
1 6 4
1 8 5
1 10 10
1 11 8
1 12 2
1 13 2
1 14 10
1 15 7
1 17 3
1 19 3
1 21 4
1 22 4
1 25 10
1 26 9
1 27 4
1 28 8
1 30 10
1 32 4
1 33 1
1 35 10
1 36 2
1 37 9
1 38 8
1 41 9
1 42 4
1 43 1
1 44 2
1 45 6
1 46 9
1 47 2
1 48 8
1 50 4
1 51 1
1 52 4
1 54 5
1 55 7
1 56 3
1 57 6
1 59 10
1 60 1
1 61 3
1 62 10
1 65 3
1 68 10
1 69 4
1 70 4
1 71 6
1 72 10
1 73 4
1 74 8
1 76 5
1 79 2
1 80 10
1 81 4
1 82 6
1 83 7
1 84 7
1 85 8
1 86 4
1 87 8
1 89 5
1 90 8
1 92 2
1 93 3
1 94 8
1 95 4
1 96 10
1 97 5
1 98 9
1 99 10
1 100 10
1 102 9
1 103 7
1 105 8
1 107 6
1 109 5
1 110 2
1 112 7
1 113 9
1 116 3
1 117 7
1 118 5
1 119 1
1 120 9
1 121 4
1 122 9
1 123 5
1 124 8
1 126 3
1 128 6
1 129 10
1 130 4
1 131 3
1 132 5
1 134 2
1 135 10
1 136 3
1 137 9
1 139 8
1 140 2
1 141 7
1 144 1
1 145 5
1 146 2
1 148 4
1 149 6
1 151 5
1 152 2
1 154 2
1 155 8
1 156 7
1 158 2
1 159 2
1 160 10
1 163 2
1 164 4
1 165 2
1 166 5
1 167 6
1 168 5
1 169 3
1 170 1
1 172 10
1 173 3
1 174 2
1 176 4
1 177 6
1 178 8
1 180 3
1 181 7
1 182 6
1 183 10
1 184 5
1 186 4
1 187 8
1 188 5
1 192 7
1 193 9
1 195 6
1 197 8
1 198 9
1 199 10
1 200 1
1 201 10
1 203 10
1 205 6
1 206 10
1 210 6
1 211 1
1 215 5
1 216 1
1 218 3
1 219 2
1 221 7
1 222 10
1 223 8
1 224 7
1 225 5
1 227 8
1 228 1
1 229 3
1 232 10
1 233 7
1 235 4
1 238 4
1 240 2
1 241 8
1 242 9
1 243 9
1 245 4
1 246 7
1 247 5
1 248 9
1 250 8
1 251 5
1 252 3
1 255 6
1 257 10
1 259 9
1 260 10
1 261 2
1 262 10
1 264 7
1 265 4
1 266 3
1 267 1
1 269 9
1 271 10
1 272 1
1 273 5
1 274 4
1 275 8
1 278 5
1 279 5
1 280 1
1 281 10
1 283 8
1 286 7
1 287 3
1 288 2
1 289 2
1 291 4
1 292 6
1 294 3
1 295 5
1 296 7
1 298 7
1 299 3
1 300 6
2 3 8
2 4 6
2 6 5
2 8 2
2 9 10
2 10 5
2 11 10
2 12 10
2 14 6
2 15 2
2 17 8
2 18 9
2 19 1
2 21 2
2 22 3
2 24 10
2 25 3
2 26 4
2 27 10
2 29 9
2 30 7
2 32 4
2 33 10
2 36 8
2 37 10
2 42 10
2 44 8
2 45 6
2 46 6
2 47 3
2 48 1
2 49 10
2 51 8
2 52 6
2 53 3
2 55 10
2 56 7
2 57 2
2 61 4
2 62 9
2 63 5
2 64 10
2 65 2
2 67 8
2 69 5
2 70 10
2 71 8
2 73 8
2 75 5
2 76 5
2 78 5
2 82 7
2 84 9
2 87 9
2 88 7
2 89 10
2 90 9
2 92 10
2 93 8
2 94 7
2 95 9
2 96 6
2 97 6
2 98 6
2 99 2
2 101 9
2 102 8
2 103 7
2 104 4
2 105 2
2 106 10
2 108 6
2 109 5
2 110 5
2 111 8
2 112 9
2 113 9
2 114 7
2 115 9
2 116 4
2 118 6
2 119 1
2 120 5
2 121 1
2 122 5
2 123 8
2 124 3
2 126 10
2 127 4
2 129 1
2 132 10
2 133 1
2 134 5
2 135 10
2 137 4
2 140 5
2 141 9
2 142 2
2 143 3
2 144 9
2 145 6
2 146 2
2 148 5
2 152 8
2 154 9
2 155 8
2 156 6
2 158 4
2 159 1
2 160 5
2 161 7
2 162 7
2 163 4
2 164 7
2 165 6
2 166 8
2 167 8
2 168 8
2 169 4
2 171 10
2 172 10
2 173 9
2 174 1
2 175 4
2 176 2
2 177 7
2 178 6
2 179 3
2 181 9
2 182 9
2 183 5
2 184 7
2 187 10
2 188 8
2 189 3
2 192 5
2 195 4
2 196 6
2 198 9
2 199 2
2 200 10
2 201 2
2 202 3
2 205 8
2 206 8
2 207 4
2 209 3
2 210 2
2 211 9
2 213 7
2 214 10
2 215 7
2 217 2
2 218 7
2 219 6
2 220 2
2 222 5
2 223 2
2 225 2
2 226 4
2 227 1
2 228 2
2 229 9
2 230 6
2 232 4
2 233 10
2 237 5
2 238 1
2 239 1
2 240 4
2 241 6
2 245 6
2 246 3
2 247 1
2 249 3
2 250 1
2 252 1
2 253 9
2 255 5
2 256 2
2 257 4
2 258 5
2 260 7
2 262 7
2 263 7
2 264 2
2 265 1
2 266 6
2 268 3
2 269 1
2 270 2
2 271 7
2 272 3
2 273 10
2 275 7
2 276 4
2 277 4
2 278 6
2 279 6
2 281 1
2 282 8
2 283 10
2 285 7
2 286 2
2 287 9
2 288 9
2 289 3
2 290 5
2 291 6
2 292 5
2 294 1
2 295 9
2 296 3
2 297 5
2 298 4
2 299 8
2 300 7
3 5 8
3 9 8
3 10 4
3 11 8
3 12 8
3 13 3
3 15 7
3 16 7
3 17 8
3 23 4
3 24 3
3 25 6
3 26 7
3 27 4
3 28 8
3 29 8
3 31 2
3 34 8
3 35 7
3 36 3
3 38 7
3 39 10
3 41 10
3 42 8
3 43 1
3 45 2
3 46 4
3 47 4
3 49 3
3 51 3
3 52 4
3 54 10
3 55 10
3 56 3
3 57 10
3 58 6
3 59 4
3 60 10
3 61 3
3 62 2
3 64 7
3 66 10
3 67 3
3 68 4
3 69 6
3 70 1
3 71 8
3 73 7
3 74 10
3 75 7
3 77 7
3 78 10
3 79 5
3 80 2
3 81 1
3 82 7
3 83 9
3 84 8
3 85 8
3 86 7
3 87 7
3 89 1
3 90 1
3 91 10
3 93 1
3 94 5
3 96 4
3 97 4
3 99 3
3 101 3
3 102 2
3 103 10
3 104 1
3 105 10
3 106 6
3 107 1
3 108 5
3 110 8
3 111 7
3 114 5
3 115 4
3 117 1
3 118 4
3 120 7
3 121 6
3 122 7
3 123 2
3 125 3
3 126 3
3 127 3
3 128 5
3 130 9
3 131 9
3 133 8
3 134 2
3 135 10
3 136 10
3 137 10
3 139 10
3 140 8
3 141 10
3 142 6
3 143 3
3 144 5
3 146 1
3 147 9
3 148 9
3 153 2
3 154 8
3 155 5
3 157 10
3 158 10
3 160 3
3 161 1
3 163 3
3 164 3
3 166 2
3 167 6
3 169 10
3 170 9
3 171 4
3 172 2
3 176 4
3 177 5
3 179 2
3 180 7
3 181 10
3 185 9
3 186 6
3 187 6
3 188 9
3 189 2
3 190 3
3 192 3
3 193 7
3 194 6
3 195 2
3 196 8
3 198 8
3 200 10
3 202 8
3 203 5
3 204 5
3 205 7
3 207 3
3 208 5
3 210 3
3 211 4
3 212 5
3 216 10
3 217 7
3 218 3
3 220 7
3 221 6
3 222 3
3 225 6
3 229 2
3 230 9
3 231 2
3 234 7
3 235 1
3 236 9
3 237 8
3 239 3
3 240 3
3 241 5
3 242 6
3 243 8
3 246 4
3 248 2
3 249 6
3 250 8
3 251 2
3 253 6
3 254 3
3 255 8
3 256 2
3 258 3
3 259 5
3 262 7
3 263 5
3 264 8
3 265 3
3 266 3
3 267 5
3 268 9
3 272 2
3 273 3
3 275 9
3 277 3
3 280 4
3 281 9
3 283 10
3 284 4
3 285 3
3 286 8
3 287 2
3 288 8
3 289 4
3 291 3
3 292 5
3 293 5
3 294 8
3 296 3
3 297 4
3 299 3
3 300 9
4 5 1
4 7 9
4 8 6
4 9 8
4 11 1
4 14 10
4 15 5
4 16 10
4 17 1
4 18 9
4 19 7
4 20 10
4 21 7
4 22 5
4 24 9
4 25 7
4 26 4
4 27 3
4 28 10
4 30 9
4 32 2
4 33 7
4 34 10
4 36 6
4 38 5
4 39 3
4 40 6
4 41 3
4 42 2
4 43 9
4 44 8
4 46 7
4 48 2
4 49 2
4 50 10
4 51 10
4 52 8
4 53 9
4 55 9
4 58 9
4 59 7
4 61 5
4 62 7
4 63 5
4 64 9
4 65 8
4 66 6
4 67 7
4 68 2
4 70 5
4 71 1
4 72 10
4 73 2
4 75 9
4 76 5
4 77 4
4 78 10
4 80 5
4 82 6
4 84 1
4 86 8
4 88 8
4 90 7
4 94 4
4 95 5
4 96 1
4 99 1
4 101 6
4 102 1
4 103 3
4 106 5
4 109 4
4 110 10
4 111 7
4 113 9
4 114 6
4 115 10
4 117 4
4 118 8
4 120 2
4 121 2
4 123 2
4 124 4
4 125 6
4 126 8
4 127 8
4 128 1
4 129 9
4 130 8
4 131 9
4 132 7
4 133 1
4 136 7
4 137 9
4 138 5
4 139 4
4 142 1
4 144 6
4 145 1
4 146 10
4 148 7
4 149 10
4 150 1
4 151 8
4 152 9
4 153 8
4 155 5
4 156 9
4 157 6
4 158 5
4 159 4
4 160 5
4 161 8
4 162 2
4 164 7
4 165 7
4 166 3
4 167 5
4 168 3
4 170 2
4 171 3
4 172 3
4 173 2
4 174 2
4 175 3
4 176 4
4 178 5
4 180 10
4 181 7
4 182 3
4 183 5
4 184 2
4 186 2
4 188 2
4 189 7
4 190 9
4 191 9
4 192 6
4 194 3
4 195 6
4 196 3
4 198 1
4 199 2
4 200 6
4 202 5
4 203 3
4 206 10
4 207 10
4 208 9
4 209 4
4 211 1
4 213 9
4 214 10
4 215 7
4 216 9
4 217 10
4 218 2
4 219 7
4 220 1
4 221 8
4 222 5
4 223 10
4 224 8
4 225 10
4 226 6
4 227 8
4 228 2
4 229 6
4 230 10
4 232 8
4 234 3
4 236 8
4 237 4
4 239 4
4 240 2
4 242 8
4 245 1
4 246 8
4 247 10
4 248 3
4 250 2
4 251 6
4 252 2
4 253 4
4 254 6
4 255 9
4 256 10
4 257 7
4 258 3
4 260 2
4 261 3
4 262 7
4 265 4
4 266 4
4 267 2
4 268 1
4 269 10
4 270 6
4 271 2
4 273 7
4 274 4
4 275 9
4 277 5
4 278 8
4 280 2
4 281 9
4 282 10
4 286 10
4 288 8
4 289 7
4 290 3
4 292 8
4 293 1
4 294 7
4 297 9
4 298 9
4 299 10
4 300 9
5 7 1
5 9 7
5 10 4
5 11 6
5 12 10
5 13 8
5 14 4
5 16 6
5 17 10
5 18 5
5 19 10
5 20 3
5 22 6
5 23 7
5 25 3
5 26 4
5 27 8
5 28 4
5 29 10
5 30 8
5 33 3
5 34 4
5 35 9
5 36 2
5 37 5
5 39 4
5 40 8
5 42 5
5 43 1
5 44 8
5 45 4
5 46 8
5 48 2
5 49 9
5 50 1
5 54 9
5 55 4
5 56 1
5 58 3
5 59 1
5 60 9
5 62 1
5 63 3
5 64 10
5 65 4
5 66 4
5 68 8
5 69 6
5 70 10
5 74 2
5 75 5
5 77 2
5 78 5
5 79 7
5 82 6
5 84 3
5 85 6
5 86 10
5 87 3
5 89 4
5 90 10
5 91 2
5 93 8
5 94 9
5 96 1
5 97 3
5 98 7
5 101 5
5 102 10
5 106 7
5 107 2
5 109 6
5 110 10
5 112 5
5 114 10
5 115 5
5 116 1
5 117 2
5 121 8
5 122 2
5 123 1
5 124 5
5 125 10
5 126 10
5 127 7
5 128 4
5 129 5
5 131 9
5 132 7
5 134 8
5 135 10
5 136 8
5 137 5
5 138 2
5 140 3
5 141 6
5 142 2
5 143 1
5 144 6
5 145 4
5 146 2
5 147 7
5 148 1
5 149 2
5 150 5
5 153 3
5 154 4
5 156 6
5 159 9
5 161 7
5 162 4
5 163 4
5 165 5
5 168 9
5 170 9
5 171 7
5 172 3
5 173 4
5 174 10
5 177 7
5 181 7
5 182 6
5 183 7
5 184 7
5 186 8
5 187 6
5 188 4
5 189 6
5 190 5
5 191 2
5 193 9
5 195 1
5 196 8
5 197 6
5 198 8
5 199 5
5 200 8
5 202 6
5 203 5
5 205 9
5 207 2
5 208 9
5 209 7
5 213 3
5 215 6
5 216 9
5 217 4
5 218 4
5 219 1
5 220 9
5 221 5
5 222 1
5 223 7
5 227 7
5 228 10
5 229 10
5 230 4
5 231 9
5 232 9
5 233 8
5 236 6
5 237 10
5 238 1
5 239 5
5 241 4
5 242 3
5 243 5
5 248 5
5 249 7
5 250 9
5 251 1
5 252 4
5 253 9
5 256 1
5 257 5
5 259 3
5 260 3
5 261 8
5 262 6
5 263 10
5 264 7
5 265 1
5 266 7
5 267 7
5 268 5
5 269 9
5 271 5
5 272 10
5 273 7
5 276 7
5 277 1
5 278 4
5 279 5
5 280 3
5 282 3
5 283 2
5 284 9
5 285 3
5 286 10
5 287 9
5 288 9
5 290 8
5 291 5
5 292 3
5 293 2
5 294 3
5 297 8
5 299 3
5 300 7
6 8 8
6 9 7
6 10 2
6 13 3
6 15 6
6 16 10
6 17 3
6 19 7
6 20 9
6 23 6
6 24 4
6 25 3
6 26 8
6 28 7
6 29 7
6 34 7
6 35 5
6 36 7
6 37 7
6 38 1
6 41 6
6 43 6
6 44 10
6 45 4
6 46 7
6 48 1
6 49 1
6 52 3
6 53 5
6 54 3
6 55 9
6 56 3
6 58 8
6 59 1
6 60 5
6 61 4
6 63 10
6 64 1
6 66 2
6 67 6
6 69 9
6 71 8
6 72 6
6 73 3
6 74 6
6 76 8
6 77 8
6 78 2
6 79 4
6 80 10
6 81 1
6 85 9
6 86 6
6 87 10
6 88 2
6 89 8
6 90 8
6 91 4
6 92 4
6 93 7
6 94 8
6 95 1
6 97 4
6 99 9
6 100 7
6 101 1
6 103 3
6 105 10
6 106 7
6 107 4
6 108 6
6 109 2
6 110 7
6 111 10
6 112 7
6 113 1
6 114 2
6 115 9
6 116 5
6 117 3
6 118 7
6 119 9
6 120 2
6 122 7
6 123 4
6 124 8
6 125 6
6 126 9
6 128 10
6 129 10
6 132 7
6 135 7
6 136 2
6 137 1
6 138 8
6 139 1
6 140 3
6 142 10
6 143 4
6 145 4
6 147 7
6 148 2
6 149 6
6 150 8
6 151 6
6 152 6
6 156 1
6 157 7
6 158 4
6 160 7
6 162 1
6 163 1
6 164 4
6 165 8
6 166 10
6 167 3
6 169 3
6 170 8
6 172 10
6 173 6
6 177 6
6 178 7
6 179 1
6 181 3
6 182 9
6 183 4
6 184 1
6 185 9
6 186 5
6 188 5
6 189 2
6 190 10
6 191 8
6 192 3
6 195 8
6 196 10
6 198 1
6 199 8
6 201 5
6 202 6
6 203 3
6 204 4
6 207 8
6 208 4
6 210 1
6 211 3
6 212 4
6 213 3
6 214 6
6 215 6
6 216 4
6 217 8
6 218 4
6 220 2
6 221 5
6 223 3
6 226 6
6 228 5
6 229 4
6 230 10
6 232 1
6 233 1
6 236 7
6 238 6
6 241 7
6 243 8
6 244 7
6 245 3
6 246 4
6 248 4
6 250 9
6 251 4
6 253 1
6 254 4
6 255 5
6 256 2
6 257 5
6 258 4
6 259 2
6 260 3
6 261 9
6 262 6
6 263 10
6 265 5
6 266 6
6 268 1
6 269 3
6 270 8
6 271 8
6 272 9
6 273 5
6 274 6
6 275 7
6 276 7
6 278 10
6 279 2
6 280 9
6 281 8
6 282 3
6 283 6
6 284 2
6 287 8
6 288 4
6 289 10
6 290 6
6 291 6
6 292 5
6 293 5
6 294 10
6 295 3
6 297 1
6 299 2
6 300 5
7 8 6
7 9 3
7 11 2
7 12 4
7 13 9
7 15 10
7 17 6
7 19 9
7 21 3
7 22 3
7 24 2
7 25 4
7 26 5
7 27 1
7 28 1
7 29 10
7 31 1
7 33 1
7 34 1
7 35 1
7 40 9
7 41 7
7 42 6
7 43 3
7 46 10
7 47 4
7 48 10
7 49 8
7 50 2
7 51 3
7 52 3
7 54 1
7 55 9
7 56 4
7 57 2
7 58 10
7 60 6
7 62 6
7 63 1
7 64 5
7 65 4
7 69 8
7 71 9
7 73 2
7 75 10
7 77 9
7 79 1
7 80 1
7 81 5
7 82 9
7 83 5
7 84 4
7 85 1
7 86 3
7 88 7
7 89 2
7 91 8
7 92 4
7 93 3
7 94 1
7 97 9
7 99 1
7 101 6
7 102 8
7 104 4
7 105 9
7 106 6
7 107 7
7 108 1
7 109 6
7 112 4
7 113 9
7 116 5
7 118 2
7 121 2
7 122 6
7 123 8
7 124 3
7 125 3
7 126 4
7 130 4
7 132 3
7 133 7
7 135 2
7 136 3
7 137 1
7 138 2
7 139 8
7 140 6
7 141 6
7 142 3
7 143 2
7 144 3
7 145 1
7 146 7
7 147 4
7 148 4
7 151 8
7 152 4
7 154 3
7 156 1
7 158 8
7 161 5
7 162 2
7 163 6
7 164 8
7 166 7
7 168 4
7 169 2
7 171 8
7 172 10
7 173 3
7 174 9
7 175 8
7 176 1
7 177 7
7 178 7
7 179 10
7 180 6
7 181 6
7 182 8
7 183 4
7 184 5
7 186 1
7 187 6
7 188 1
7 189 7
7 190 5
7 192 10
7 194 5
7 196 1
7 198 8
7 199 1
7 201 3
7 202 5
7 203 5
7 204 2
7 205 5
7 206 6
7 207 4
7 208 3
7 209 1
7 210 4
7 212 7
7 213 4
7 214 3
7 215 6
7 216 9
7 217 3
7 218 8
7 219 1
7 220 4
7 221 3
7 223 3
7 224 10
7 227 6
7 228 8
7 229 6
7 230 2
7 231 6
7 232 9
7 233 9
7 236 3
7 240 4
7 242 5
7 243 9
7 244 5
7 245 1
7 249 4
7 250 4
7 254 3
7 255 5
7 257 9
7 258 3
7 259 3
7 260 1
7 262 4
7 264 1
7 267 5
7 268 10
7 270 8
7 272 1
7 273 7
7 275 7
7 276 3
7 277 8
7 278 2
7 280 5
7 281 2
7 283 2
7 284 5
7 285 10
7 286 10
7 288 6
7 290 4
7 291 10
7 292 6
7 294 4
7 296 5
7 299 2
7 300 5
8 10 10
8 14 3
8 15 2
8 16 9
8 18 9
8 22 7
8 23 7
8 24 9
8 26 7
8 28 7
8 29 9
8 31 2
8 32 9
8 33 4
8 34 8
8 36 4
8 37 6
8 38 8
8 40 8
8 41 1
8 43 10
8 44 5
8 47 4
8 48 7
8 49 5
8 51 9
8 52 7
8 53 10
8 55 7
8 57 8
8 58 6
8 60 1
8 63 2
8 64 6
8 65 5
8 66 4
8 67 1
8 68 9
8 70 7
8 71 8
8 72 8
8 75 6
8 76 4
8 77 8
8 80 7
8 83 10
8 84 7
8 85 3
8 87 2
8 89 2
8 90 1
8 93 5
8 94 6
8 95 7
8 98 1
8 99 6
8 103 4
8 104 10
8 105 4
8 106 1
8 107 3
8 109 8
8 110 8
8 111 1
8 113 1
8 114 5
8 115 4
8 116 10
8 117 4
8 118 9
8 119 8
8 120 2
8 122 1
8 123 4
8 125 1
8 126 10
8 128 9
8 129 9
8 130 3
8 134 10
8 135 7
8 136 1
8 137 10
8 138 3
8 139 9
8 141 10
8 142 10
8 143 1
8 144 5
8 145 9
8 146 6
8 148 8
8 151 6
8 152 6
8 154 1
8 155 2
8 158 8
8 159 5
8 162 4
8 163 4
8 164 1
8 166 8
8 167 3
8 168 10
8 169 9
8 171 9
8 172 10
8 173 1
8 174 4
8 175 5
8 176 2
8 179 3
8 181 9
8 182 5
8 183 2
8 185 7
8 186 5
8 187 6
8 188 2
8 189 7
8 190 4
8 193 4
8 197 5
8 198 7
8 199 4
8 200 4
8 201 1
8 203 5
8 204 3
8 205 9
8 208 10
8 209 1
8 210 4
8 212 9
8 213 3
8 215 7
8 216 9
8 217 1
8 218 2
8 219 1
8 220 1
8 223 1
8 224 6
8 225 7
8 227 6
8 229 1
8 231 9
8 232 3
8 233 2
8 234 7
8 236 3
8 239 8
8 240 9
8 241 2
8 242 7
8 243 4
8 244 8
8 245 7
8 246 4
8 247 2
8 248 4
8 249 5
8 250 6
8 251 3
8 253 2
8 257 1
8 258 5
8 261 6
8 263 2
8 264 3
8 265 2
8 266 3
8 268 1
8 269 10
8 270 6
8 271 1
8 272 5
8 273 3
8 280 6
8 281 2
8 282 6
8 283 7
8 284 10
8 286 7
8 287 5
8 288 8
8 289 4
8 290 2
8 292 4
8 293 5
8 294 8
8 296 6
8 297 7
8 298 6
9 10 9
9 11 1
9 12 8
9 13 10
9 14 3
9 16 6
9 17 1
9 18 4
9 19 8
9 20 3
9 21 1
9 22 1
9 24 1
9 28 10
9 30 5
9 31 10
9 33 7
9 34 1
9 35 10
9 37 6
9 38 2
9 39 5
9 40 2
9 41 4
9 42 7
9 43 5
9 44 4
9 46 7
9 47 3
9 48 2
9 51 7
9 53 7
9 54 3
9 55 6
9 56 7
9 58 10
9 59 3
9 61 7
9 63 1
9 64 6
9 65 6
9 66 8
9 67 9
9 69 8
9 71 9
9 73 1
9 75 7
9 76 4
9 77 2
9 78 1
9 79 1
9 81 3
9 82 4
9 83 2
9 84 10
9 85 1
9 90 7
9 92 8
9 93 10
9 96 7
9 97 10
9 98 4
9 99 8
9 100 4
9 101 3
9 102 2
9 103 10
9 104 4
9 105 1
9 106 7
9 107 3
9 108 1
9 110 10
9 111 10
9 112 10
9 114 9
9 117 5
9 118 3
9 119 6
9 120 10
9 121 5
9 122 10
9 123 2
9 125 5
9 126 3
9 127 3
9 129 3
9 130 5
9 131 5
9 132 6
9 133 4
9 136 3
9 139 5
9 140 7
9 143 10
9 144 7
9 145 2
9 148 4
9 149 6
9 150 8
9 151 10
9 152 4
9 153 5
9 155 4
9 157 4
9 158 4
9 159 8
9 160 5
9 161 9
9 162 5
9 164 6
9 165 10
9 169 6
9 170 7
9 171 6
9 172 2
9 173 8
9 174 6
9 175 3
9 176 9
9 177 7
9 178 2
9 179 9
9 181 4
9 183 8
9 184 10
9 187 4
9 188 8
9 189 4
9 190 2
9 191 6
9 192 7
9 193 6
9 194 7
9 195 10
9 197 4
9 198 10
9 199 7
9 201 10
9 203 8
9 204 7
9 205 9
9 206 8
9 208 5
9 209 7
9 211 8
9 212 7
9 213 8
9 214 2
9 215 1
9 217 10
9 218 2
9 219 1
9 220 1
9 222 9
9 223 9
9 225 10
9 226 8
9 227 10
9 228 9
9 229 10
9 230 7
9 231 2
9 232 6
9 233 9
9 234 10
9 235 8
9 236 2
9 238 1
9 240 8
9 241 2
9 242 10
9 243 2
9 244 4
9 245 1
9 246 10
9 247 2
9 248 8
9 249 7
9 251 7
9 252 4
9 253 5
9 254 9
9 255 9
9 257 10
9 258 3
9 259 3
9 260 2
9 262 6
9 263 9
9 264 4
9 265 5
9 267 8
9 268 9
9 269 5
9 270 10
9 271 7
9 272 3
9 273 3
9 274 7
9 276 9
9 277 6
9 278 6
9 279 8
9 281 7
9 283 9
9 284 10
9 285 3
9 287 1
9 291 8
9 293 6
9 295 8
9 297 10
9 299 2
9 300 5
10 11 8
10 12 9
10 15 7
10 16 3
10 17 2
10 20 1
10 21 10
10 22 4
10 26 3
10 27 7
10 28 8
10 29 9
10 30 1
10 31 1
10 34 8
10 35 6
10 36 3
10 37 3
10 38 10
10 39 5
10 41 5
10 42 5
10 43 8
10 44 8
10 45 6
10 46 10
10 49 1
10 50 9
10 53 10
10 56 1
10 58 9
10 59 9
10 60 3
10 62 7
10 63 2
10 64 3
10 65 6
10 66 7
10 69 6
10 70 3
10 71 10
10 72 1
10 76 3
10 77 1
10 81 3
10 84 9
10 85 5
10 86 7
10 87 10
10 88 1
10 89 8
10 92 9
10 93 9
10 94 3
10 95 10
10 96 5
10 97 8
10 99 9
10 100 1
10 101 3
10 102 3
10 103 2
10 107 3
10 108 9
10 112 7
10 113 5
10 114 10
10 115 7
10 116 3
10 119 6
10 120 5
10 121 5
10 123 8
10 124 8
10 125 7
10 126 10
10 127 4
10 129 10
10 130 5
10 131 4
10 132 6
10 133 6
10 135 5
10 136 3
10 139 4
10 140 2
10 141 9
10 142 9
10 143 10
10 146 4
10 147 1
10 149 1
10 150 9
10 152 9
10 153 10
10 154 1
10 155 5
10 157 5
10 160 7
10 161 3
10 162 9
10 163 8
10 164 3
10 165 7
10 166 7
10 167 8
10 168 7
10 169 5
10 170 5
10 172 8
10 173 8
10 174 6
10 175 4
10 176 10
10 177 1
10 178 7
10 179 4
10 180 2
10 181 1
10 182 2
10 183 3
10 185 3
10 188 10
10 189 6
10 190 10
10 191 2
10 195 5
10 196 2
10 199 5
10 200 3
10 201 2
10 204 4
10 205 2
10 206 1
10 207 3
10 209 2
10 210 3
10 211 1
10 213 10
10 214 3
10 215 10
10 217 2
10 218 8
10 220 4
10 221 9
10 223 1
10 227 10
10 228 8
10 231 9
10 232 4
10 233 9
10 235 4
10 236 3
10 237 9
10 239 5
10 240 4
10 241 6
10 244 8
10 245 3
10 246 9
10 247 9
10 248 2
10 250 2
10 251 7
10 252 2
10 253 5
10 254 2
10 255 7
10 256 9
10 257 1
10 260 5
10 262 7
10 263 4
10 264 9
10 265 1
10 267 6
10 268 6
10 270 4
10 271 2
10 272 9
10 275 1
10 276 4
10 277 4
10 278 5
10 281 1
10 282 4
10 283 8
10 284 9
10 286 6
10 287 9
10 289 10
10 290 4
10 291 2
10 292 9
10 295 7
10 296 7
10 297 10
10 298 7
10 299 6
10 300 4
11 12 9
11 14 9
11 16 4
11 17 5
11 18 10
11 19 1
11 20 7
11 21 2
11 24 9
11 25 9
11 26 10
11 28 6
11 29 6
11 30 5
11 31 8
11 32 8
11 34 1
11 35 5
11 40 6
11 41 1
11 42 10
11 43 5
11 44 2
11 45 7
11 46 1
11 50 8
11 51 5
11 53 2
11 54 6
11 55 7
11 56 9
11 57 8
11 58 5
11 60 9
11 61 3
11 62 1
11 63 4
11 64 10
11 65 3
11 66 4
11 67 4
11 68 5
11 70 2
11 71 4
11 73 5
11 74 2
11 76 1
11 77 3
11 79 2
11 80 7
11 81 7
11 83 1
11 84 2
11 85 4
11 87 3
11 88 2
11 91 10
11 92 10
11 94 6
11 95 9
11 96 5
11 97 3
11 98 8
11 99 8
11 100 2
11 104 8
11 105 10
11 106 8
11 108 9
11 109 5
11 110 7
11 111 6
11 112 6
11 113 4
11 114 6
11 115 1
11 117 8
11 120 6
11 121 9
11 122 6
11 123 3
11 124 6
11 125 7
11 126 8
11 127 2
11 129 5
11 130 4
11 132 5
11 134 1
11 135 8
11 136 1
11 137 7
11 138 6
11 139 2
11 140 6
11 141 6
11 142 10
11 144 5
11 145 3
11 146 8
11 148 7
11 149 9
11 151 7
11 152 5
11 155 1
11 156 2
11 158 2
11 159 4
11 161 2
11 162 4
11 163 6
11 165 8
11 170 5
11 171 9
11 172 8
11 175 6
11 176 9
11 177 8
11 179 1
11 180 7
11 181 4
11 182 3
11 184 7
11 185 4
11 186 3
11 187 1
11 188 9
11 189 5
11 190 6
11 192 5
11 194 10
11 195 3
11 196 5
11 198 8
11 199 3
11 202 1
11 203 8
11 204 9
11 206 1
11 208 4
11 209 6
11 211 5
11 212 9
11 213 2
11 214 8
11 215 3
11 216 3
11 217 10
11 219 9
11 220 7
11 221 8
11 223 7
11 224 5
11 225 9
11 227 8
11 229 1
11 230 10
11 231 9
11 232 6
11 233 5
11 234 3
11 237 8
11 238 7
11 239 2
11 242 2
11 245 4
11 247 7
11 250 5
11 253 8
11 255 2
11 256 1
11 257 6
11 258 7
11 260 9
11 261 5
11 262 3
11 264 5
11 265 2
11 266 2
11 267 7
11 270 6
11 271 8
11 272 10
11 273 9
11 274 6
11 275 6
11 277 9
11 278 1
11 279 7
11 280 6
11 281 4
11 282 2
11 284 6
11 285 9
11 286 4
11 287 9
11 288 9
11 290 6
11 291 3
11 292 7
11 294 2
11 295 4
11 296 6
11 297 7
11 298 10
11 299 2
11 300 10
12 13 4
12 15 5
12 16 1
12 17 8
12 19 10
12 20 9
12 21 5
12 22 6
12 24 7
12 25 5
12 26 9
12 27 9
12 29 6
12 30 10
12 31 9
12 33 4
12 34 6
12 35 2
12 37 4
12 38 4
12 39 9
12 41 9
12 43 5
12 45 9
12 46 7
12 47 10
12 48 10
12 49 5
12 50 10
12 51 2
12 54 8
12 56 6
12 57 4
12 58 8
12 60 5
12 63 6
12 65 6
12 66 7
12 67 7
12 68 8
12 70 3
12 71 2
12 72 7
12 73 4
12 74 8
12 75 3
12 76 1
12 77 6
12 79 7
12 80 2
12 81 5
12 82 7
12 83 1
12 84 9
12 87 1
12 88 4
12 93 1
12 95 8
12 96 10
12 97 8
12 99 5
12 102 7
12 104 5
12 107 3
12 108 7
12 109 9
12 110 1
12 111 6
12 112 6
12 113 2
12 116 9
12 118 9
12 119 7
12 120 9
12 121 1
12 122 1
12 123 2
12 126 6
12 128 3
12 129 10
12 130 2
12 132 4
12 133 1
12 134 4
12 135 1
12 136 9
12 137 6
12 138 9
12 139 10
12 140 10
12 143 8
12 144 6
12 145 6
12 146 10
12 149 6
12 150 9
12 151 9
12 152 8
12 153 1
12 154 9
12 155 2
12 156 7
12 157 9
12 158 7
12 160 1
12 161 6
12 165 5
12 166 5
12 167 9
12 168 3
12 169 4
12 170 8
12 171 1
12 172 4
12 174 4
12 175 7
12 177 6
12 179 10
12 180 9
12 181 5
12 183 3
12 184 5
12 186 10
12 187 1
12 188 5
12 191 2
12 192 5
12 193 10
12 194 2
12 196 2
12 197 8
12 198 8
12 199 7
12 200 3
12 201 8
12 203 10
12 204 3
12 205 3
12 206 9
12 207 2
12 208 5
12 209 10
12 211 10
12 213 1
12 214 9
12 215 5
12 216 5
12 218 6
12 219 5
12 220 10
12 222 3
12 224 7
12 225 3
12 229 8
12 230 10
12 231 4
12 233 5
12 235 4
12 236 1
12 239 1
12 241 2
12 242 8
12 244 6
12 245 4
12 246 9
12 248 3
12 249 1
12 250 4
12 251 1
12 254 3
12 255 10
12 257 9
12 258 8
12 259 6
12 260 2
12 261 6
12 262 2
12 263 9
12 264 7
12 265 7
12 266 1
12 267 7
12 268 8
12 272 1
12 273 5
12 274 1
12 275 10
12 276 5
12 278 2
12 279 5
12 280 3
12 282 5
12 285 2
12 287 7
12 288 2
12 289 3
12 291 4
12 292 7
12 293 2
12 294 3
12 296 10
12 297 9
12 298 4
12 299 1
12 300 9
13 14 1
13 15 9
13 16 10
13 17 6
13 19 10
13 20 6
13 21 2
13 22 7
13 24 1
13 25 8
13 26 6
13 29 2
13 30 4
13 34 4
13 38 6
13 40 5
13 41 5
13 42 8
13 44 6
13 49 8
13 50 3
13 51 7
13 53 3
13 54 1
13 57 10
13 59 9
13 61 5
13 62 7
13 63 4
13 65 7
13 66 5
13 67 2
13 69 9
13 70 7
13 72 4
13 77 5
13 78 8
13 79 9
13 80 1
13 81 1
13 82 6
13 84 5
13 85 8
13 86 8
13 87 5
13 88 10
13 90 2
13 91 5
13 93 5
13 94 10
13 95 6
13 96 2
13 97 3
13 98 10
13 100 2
13 101 8
13 102 3
13 103 5
13 106 2
13 107 9
13 109 4
13 110 8
13 111 4
13 112 4
13 113 5
13 114 8
13 115 5
13 118 3
13 121 3
13 122 7
13 123 8
13 124 9
13 126 3
13 127 9
13 129 10
13 130 4
13 131 2
13 133 10
13 134 10
13 135 8
13 136 5
13 137 7
13 140 9
13 141 9
13 144 10
13 145 5
13 146 9
13 148 10
13 149 5
13 150 7
13 151 5
13 152 2
13 153 2
13 155 8
13 156 5
13 158 7
13 160 9
13 162 5
13 164 7
13 165 8
13 167 4
13 168 6
13 170 3
13 172 7
13 173 2
13 174 2
13 175 3
13 177 4
13 178 8
13 179 3
13 184 3
13 185 6
13 186 4
13 188 4
13 189 1
13 191 8
13 192 7
13 193 3
13 194 3
13 195 6
13 198 10
13 199 1
13 200 2
13 202 10
13 203 4
13 204 8
13 205 8
13 206 1
13 208 7
13 209 4
13 210 2
13 212 9
13 213 7
13 215 1
13 217 1
13 218 9
13 219 4
13 220 10
13 223 2
13 225 3
13 227 6
13 230 4
13 231 2
13 232 10
13 233 1
13 234 4
13 236 8
13 237 4
13 240 2
13 241 1
13 242 1
13 243 6
13 244 2
13 245 9
13 246 4
13 247 4
13 250 10
13 252 5
13 253 6
13 255 5
13 256 5
13 257 9
13 258 4
13 260 4
13 261 2
13 262 2
13 263 9
13 265 4
13 266 6
13 267 9
13 269 5
13 271 1
13 272 10
13 273 6
13 275 2
13 276 6
13 277 2
13 278 4
13 280 8
13 282 8
13 283 10
13 284 2
13 286 8
13 287 4
13 289 7
13 291 10
13 296 1
13 300 4
14 18 5
14 20 7
14 23 2
14 25 1
14 27 7
14 28 2
14 31 8
14 32 6
14 33 2
14 34 1
14 35 3
14 36 3
14 37 4
14 40 4
14 44 1
14 45 4
14 46 3
14 47 8
14 48 7
14 49 1
14 50 4
14 51 6
14 53 1
14 55 10
14 57 9
14 58 10
14 59 8
14 60 4
14 61 8
14 63 9
14 64 3
14 65 5
14 66 7
14 67 6
14 68 2
14 69 6
14 71 8
14 72 9
14 75 7
14 76 2
14 79 2
14 80 9
14 81 9
14 86 6
14 89 7
14 91 3
14 92 10
14 93 1
14 94 6
14 95 5
14 97 7
14 98 5
14 99 1
14 100 1
14 101 2
14 102 8
14 103 1
14 105 7
14 106 2
14 107 6
14 111 6
14 112 6
14 113 5
14 114 9
14 115 9
14 116 7
14 117 1
14 118 8
14 120 6
14 121 7
14 122 3
14 123 7
14 124 4
14 125 10
14 126 6
14 128 5
14 129 8
14 130 2
14 131 10
14 133 8
14 134 8
14 136 8
14 137 7
14 138 5
14 139 8
14 140 6
14 141 3
14 142 6
14 143 4
14 145 2
14 146 10
14 147 6
14 148 8
14 151 4
14 154 9
14 157 5
14 158 1
14 159 2
14 160 5
14 161 2
14 165 6
14 166 3
14 167 8
14 168 10
14 169 10
14 172 6
14 174 9
14 175 8
14 177 6
14 178 2
14 179 7
14 180 8
14 181 7
14 182 1
14 183 7
14 184 3
14 185 5
14 187 6
14 188 3
14 189 2
14 192 7
14 194 6
14 196 2
14 198 1
14 200 8
14 202 9
14 203 7
14 204 5
14 205 9
14 206 5
14 207 8
14 208 3
14 211 7
14 212 3
14 213 2
14 218 1
14 219 6
14 220 7
14 221 9
14 223 6
14 225 9
14 227 10
14 228 6
14 231 5
14 232 2
14 234 5
14 235 4
14 236 10
14 237 10
14 238 9
14 239 2
14 241 5
14 245 5
14 247 7
14 249 8
14 250 2
14 251 1
14 255 9
14 256 5
14 258 10
14 259 7
14 260 8
14 261 4
14 263 2
14 264 4
14 267 3
14 268 6
14 269 7
14 271 1
14 272 4
14 273 3
14 274 7
14 275 4
14 276 3
14 277 8
14 278 5
14 282 3
14 284 4
14 285 10
14 286 7
14 287 10
14 288 6
14 289 10
14 290 7
14 291 4
14 293 6
14 295 3
14 296 9
14 297 9
14 298 7
14 299 4
15 17 6
15 18 9
15 19 6
15 20 5
15 21 4
15 22 3
15 24 1
15 25 5
15 26 2
15 27 6
15 28 2
15 29 4
15 30 3
15 31 1
15 32 8
15 34 9
15 35 10
15 36 1
15 37 5
15 38 7
15 41 7
15 42 1
15 44 2
15 45 5
15 48 4
15 49 8
15 50 6
15 51 5
15 54 5
15 56 9
15 57 4
15 58 10
15 59 7
15 63 2
15 64 7
15 65 5
15 66 5
15 67 2
15 68 6
15 69 10
15 70 9
15 71 8
15 74 9
15 75 8
15 77 9
15 78 4
15 80 1
15 81 2
15 82 3
15 83 8
15 84 6
15 87 7
15 88 1
15 90 3
15 92 5
15 93 10
15 95 1
15 97 10
15 98 5
15 101 8
15 103 3
15 104 6
15 105 6
15 106 9
15 107 2
15 108 2
15 109 9
15 111 2
15 112 7
15 115 8
15 116 5
15 118 5
15 119 10
15 123 4
15 124 3
15 125 1
15 126 6
15 127 5
15 129 3
15 130 10
15 131 1
15 132 1
15 133 1
15 134 4
15 135 9
15 136 4
15 137 9
15 138 8
15 139 3
15 142 7
15 143 4
15 144 8
15 146 8
15 147 8
15 149 8
15 151 10
15 153 1
15 154 7
15 155 10
15 159 10
15 161 2
15 162 10
15 163 8
15 164 9
15 166 1
15 167 5
15 168 3
15 169 8
15 170 6
15 171 4
15 173 5
15 174 1
15 175 3
15 176 8
15 177 4
15 178 3
15 179 3
15 181 9
15 182 4
15 183 4
15 185 3
15 187 7
15 189 5
15 190 3
15 192 8
15 194 8
15 196 10
15 197 4
15 198 9
15 200 6
15 201 9
15 204 1
15 205 6
15 207 7
15 209 6
15 210 5
15 211 6
15 213 1
15 214 9
15 215 6
15 216 6
15 217 7
15 218 8
15 219 5
15 220 6
15 221 1
15 224 4
15 225 1
15 227 7
15 228 9
15 230 3
15 231 3
15 232 3
15 233 9
15 236 2
15 237 5
15 238 1
15 239 8
15 241 2
15 242 6
15 243 3
15 246 6
15 247 8
15 248 2
15 252 10
15 254 6
15 255 10
15 258 9
15 259 4
15 260 9
15 262 4
15 263 1
15 264 8
15 265 8
15 266 10
15 267 4
15 268 3
15 269 3
15 271 2
15 272 4
15 275 2
15 276 5
15 278 9
15 279 2
15 282 2
15 283 6
15 284 10
15 286 6
15 287 5
15 288 7
15 292 5
15 293 3
15 294 6
15 295 2
15 296 7
15 299 3
15 300 6
16 17 9
16 18 9
16 19 2
16 23 2
16 24 6
16 25 6
16 26 1
16 27 2
16 28 8
16 29 1
16 30 5
16 31 9
16 32 8
16 33 4
16 35 10
16 36 5
16 38 10
16 40 7
16 41 5
16 42 3
16 43 9
16 44 8
16 45 9
16 46 1
16 47 4
16 50 5
16 51 5
16 52 4
16 53 8
16 54 3
16 55 4
16 61 9
16 62 3
16 63 9
16 64 7
16 65 2
16 66 6
16 67 8
16 70 10
16 71 7
16 73 9
16 74 1
16 75 6
16 78 10
16 79 8
16 80 5
16 81 6
16 82 6
16 85 4
16 86 9
16 87 7
16 88 9
16 89 1
16 90 8
16 92 4
16 93 2
16 94 1
16 95 1
16 96 4
16 97 8
16 98 10
16 102 1
16 103 9
16 104 8
16 106 1
16 108 10
16 109 9
16 110 6
16 111 3
16 112 10
16 114 8
16 116 1
16 117 8
16 118 4
16 121 1
16 122 1
16 123 1
16 124 9
16 131 4
16 132 4
16 133 6
16 135 1
16 136 1
16 137 6
16 140 2
16 142 3
16 144 6
16 145 3
16 146 6
16 147 1
16 148 3
16 150 9
16 152 8
16 153 5
16 157 1
16 158 5
16 159 10
16 160 1
16 162 2
16 163 5
16 165 9
16 166 8
16 167 1
16 168 8
16 169 5
16 170 9
16 171 3
16 173 8
16 174 3
16 177 2
16 178 7
16 181 5
16 183 1
16 184 10
16 185 6
16 186 2
16 187 7
16 188 6
16 189 8
16 191 2
16 197 8
16 198 5
16 199 10
16 201 6
16 202 7
16 205 8
16 206 10
16 207 4
16 208 3
16 210 2
16 211 6
16 214 5
16 216 8
16 217 5
16 218 1
16 219 10
16 221 10
16 222 8
16 223 9
16 224 3
16 225 8
16 227 10
16 228 7
16 229 2
16 231 9
16 232 3
16 233 1
16 234 4
16 235 1
16 238 1
16 240 3
16 244 9
16 245 9
16 246 10
16 247 10
16 249 3
16 250 2
16 251 10
16 252 3
16 253 9
16 256 6
16 257 4
16 258 3
16 261 5
16 262 7
16 264 6
16 265 5
16 266 2
16 267 4
16 268 7
16 270 4
16 271 5
16 272 8
16 275 3
16 276 8
16 277 3
16 279 2
16 280 7
16 281 7
16 282 8
16 283 8
16 284 7
16 287 3
16 288 2
16 289 10
16 290 9
16 291 4
16 292 7
16 293 9
16 294 6
16 297 1
16 299 3
16 300 1
17 18 2
17 19 9
17 21 2
17 22 1
17 23 4
17 24 1
17 26 9
17 27 5
17 28 10
17 31 6
17 32 1
17 33 7
17 34 2
17 35 5
17 36 9
17 37 4
17 38 9
17 39 3
17 41 7
17 42 1
17 44 8
17 45 7
17 46 6
17 49 9
17 50 8
17 51 7
17 53 8
17 54 9
17 57 8
17 59 7
17 60 2
17 61 3
17 62 2
17 63 8
17 64 8
17 65 10
17 66 8
17 67 1
17 68 9
17 70 8
17 71 10
17 72 6
17 74 5
17 75 10
17 76 10
17 78 8
17 80 10
17 81 8
17 82 10
17 83 2
17 84 10
17 85 8
17 87 8
17 88 6
17 90 6
17 91 2
17 92 3
17 93 5
17 95 6
17 96 8
17 99 3
17 100 5
17 101 8
17 106 4
17 107 9
17 108 2
17 111 2
17 118 4
17 119 8
17 120 5
17 121 1
17 126 7
17 127 7
17 128 5
17 129 6
17 130 8
17 131 10
17 132 4
17 133 10
17 134 7
17 135 6
17 137 3
17 138 2
17 139 3
17 140 2
17 141 4
17 144 7
17 145 3
17 146 10
17 148 9
17 150 9
17 151 9
17 152 3
17 153 1
17 154 1
17 155 6
17 156 9
17 157 2
17 160 10
17 165 1
17 166 6
17 167 6
17 168 7
17 169 2
17 170 9
17 172 8
17 175 8
17 176 5
17 177 10
17 178 4
17 181 9
17 183 7
17 184 1
17 187 3
17 188 1
17 189 7
17 190 6
17 191 10
17 194 7
17 196 6
17 197 2
17 198 6
17 200 1
17 201 7
17 204 8
17 205 2
17 207 5
17 208 9
17 209 1
17 210 8
17 212 8
17 213 1
17 214 1
17 215 8
17 216 9
17 217 7
17 218 1
17 219 2
17 220 3
17 221 3
17 222 1
17 223 4
17 224 7
17 226 8
17 227 4
17 228 6
17 229 7
17 230 6
17 231 1
17 232 8
17 233 6
17 236 3
17 237 6
17 239 7
17 242 5
17 243 8
17 244 5
17 245 2
17 246 5
17 247 1
17 248 6
17 249 5
17 251 4
17 253 5
17 254 3
17 257 3
17 258 10
17 259 9
17 260 6
17 261 8
17 264 6
17 266 5
17 267 8
17 269 1
17 270 4
17 271 2
17 272 9
17 273 5
17 274 4
17 275 7
17 276 7
17 277 3
17 278 3
17 279 6
17 280 8
17 283 3
17 284 10
17 285 1
17 286 7
17 287 5
17 288 8
17 290 4
17 291 2
17 292 4
17 293 9
17 294 5
17 295 5
17 297 10
17 298 4
17 299 4
17 300 2
18 19 4
18 20 4
18 22 8
18 25 4
18 26 2
18 27 4
18 28 1
18 29 8
18 31 8
18 32 6
18 33 3
18 34 1
18 36 1
18 37 5
18 40 4
18 41 7
18 44 9
18 45 2
18 46 6
18 47 9
18 48 3
18 49 9
18 50 4
18 52 3
18 54 5
18 57 5
18 58 5
18 59 10
18 60 2
18 61 6
18 62 6
18 64 6
18 65 8
18 66 7
18 67 8
18 68 3
18 69 8
18 70 10
18 73 9
18 74 9
18 75 1
18 76 8
18 78 1
18 80 9
18 81 4
18 82 4
18 85 3
18 86 6
18 87 2
18 88 9
18 92 10
18 93 7
18 94 7
18 95 3
18 96 1
18 97 4
18 98 9
18 101 9
18 102 6
18 103 8
18 104 5
18 106 10
18 107 10
18 108 5
18 109 4
18 110 8
18 112 10
18 114 3
18 115 3
18 116 3
18 117 9
18 119 5
18 120 7
18 122 3
18 123 6
18 124 10
18 125 7
18 126 5
18 127 10
18 128 4
18 129 1
18 130 9
18 131 6
18 132 4
18 134 3
18 136 4
18 137 9
18 138 5
18 139 3
18 141 9
18 142 1
18 143 9
18 144 8
18 145 3
18 146 10
18 148 2
18 150 3
18 151 3
18 152 7
18 153 1
18 154 7
18 155 1
18 156 9
18 157 1
18 158 8
18 159 3
18 160 5
18 161 6
18 162 7
18 163 9
18 164 4
18 166 1
18 167 5
18 168 9
18 169 8
18 170 4
18 171 7
18 173 3
18 174 9
18 176 7
18 177 10
18 181 8
18 182 5
18 183 8
18 184 6
18 185 7
18 188 5
18 189 5
18 190 2
18 192 1
18 193 1
18 194 2
18 195 7
18 196 6
18 197 5
18 198 3
18 201 1
18 204 6
18 206 8
18 207 6
18 209 4
18 210 8
18 212 8
18 213 1
18 214 10
18 215 8
18 216 6
18 217 4
18 220 10
18 221 3
18 222 2
18 223 5
18 224 3
18 225 8
18 226 5
18 227 6
18 228 10
18 230 4
18 231 5
18 232 6
18 233 7
18 234 7
18 235 7
18 236 7
18 238 3
18 239 2
18 240 9
18 242 7
18 244 3
18 245 4
18 246 3
18 247 3
18 248 2
18 249 2
18 250 1
18 251 8
18 252 6
18 257 1
18 260 2
18 261 8
18 262 4
18 264 5
18 265 10
18 266 8
18 271 2
18 273 4
18 274 10
18 275 8
18 277 8
18 279 10
18 281 1
18 282 2
18 284 10
18 285 9
18 286 10
18 288 9
18 289 8
18 290 1
18 291 5
18 292 3
18 293 10
18 300 2
19 20 5
19 21 10
19 22 1
19 24 9
19 26 8
19 28 4
19 29 6
19 30 1
19 32 8
19 33 6
19 34 5
19 35 9
19 36 3
19 37 10
19 38 7
19 39 7
19 41 9
19 42 8
19 44 10
19 45 5
19 46 5
19 48 3
19 49 2
19 50 1
19 51 3
19 52 4
19 55 9
19 56 5
19 57 3
19 58 5
19 59 1
19 60 6
19 61 10
19 62 6
19 63 9
19 64 6
19 66 4
19 68 1
19 70 1
19 71 4
19 73 5
19 74 3
19 75 2
19 76 3
19 77 1
19 78 4
19 79 1
19 81 2
19 84 7
19 85 6
19 86 9
19 87 1
19 88 8
19 89 10
19 90 6
19 92 2
19 93 1
19 97 10
19 98 8
19 99 5
19 100 2
19 101 2
19 102 8
19 104 2
19 105 1
19 106 7
19 108 3
19 109 8
19 110 7
19 111 7
19 113 9
19 114 3
19 115 4
19 116 6
19 118 5
19 120 4
19 121 7
19 122 5
19 126 1
19 127 6
19 128 3
19 129 3
19 131 1
19 133 5
19 134 1
19 136 4
19 137 3
19 138 4
19 140 10
19 142 4
19 143 8
19 144 10
19 146 7
19 147 9
19 148 1
19 149 8
19 150 10
19 151 1
19 152 4
19 154 9
19 155 7
19 156 6
19 157 10
19 158 2
19 159 5
19 161 6
19 166 4
19 167 1
19 168 2
19 169 2
19 170 6
19 172 4
19 174 4
19 175 2
19 176 9
19 178 9
19 179 4
19 182 2
19 183 1
19 184 5
19 189 2
19 191 6
19 193 10
19 194 3
19 195 5
19 196 3
19 197 7
19 198 6
19 199 5
19 200 6
19 202 5
19 203 1
19 204 3
19 205 6
19 208 5
19 209 5
19 210 9
19 211 3
19 213 5
19 216 8
19 217 10
19 220 1
19 221 3
19 222 1
19 223 7
19 224 1
19 225 7
19 226 4
19 229 7
19 230 9
19 234 6
19 237 2
19 238 2
19 240 2
19 244 2
19 245 2
19 246 4
19 247 5
19 250 7
19 252 7
19 253 4
19 254 2
19 257 4
19 259 3
19 260 3
19 261 1
19 262 10
19 264 8
19 265 4
19 266 2
19 267 2
19 269 1
19 272 6
19 273 10
19 274 7
19 275 8
19 276 8
19 278 4
19 279 7
19 286 6
19 287 10
19 288 6
19 290 5
19 292 3
19 295 4
19 296 2
19 297 2
19 298 9
19 299 6
19 300 5
20 21 6
20 22 5
20 23 8
20 25 1
20 26 5
20 27 10
20 28 2
20 29 6
20 30 6
20 31 2
20 33 7
20 35 9
20 36 7
20 39 7
20 40 10
20 41 10
20 42 2
20 43 4
20 45 10
20 46 8
20 48 3
20 49 3
20 50 2
20 51 7
20 52 3
20 53 9
20 54 1
20 55 5
20 58 2
20 62 9
20 63 7
20 64 7
20 66 1
20 67 6
20 68 9
20 69 10
20 70 1
20 71 9
20 76 5
20 79 10
20 80 10
20 81 2
20 84 4
20 85 1
20 86 7
20 87 5
20 88 3
20 91 7
20 92 3
20 93 3
20 94 5
20 95 3
20 97 10
20 98 7
20 99 10
20 102 2
20 103 8
20 104 7
20 105 3
20 106 5
20 107 9
20 108 9
20 109 1
20 110 5
20 111 4
20 112 9
20 113 10
20 114 10
20 115 8
20 116 3
20 117 4
20 119 10
20 120 10
20 122 6
20 126 5
20 128 9
20 129 3
20 131 2
20 132 4
20 133 6
20 134 8
20 135 4
20 137 8
20 138 3
20 142 6
20 143 5
20 145 5
20 146 10
20 151 3
20 152 10
20 153 3
20 154 5
20 155 4
20 156 7
20 157 6
20 159 7
20 161 2
20 163 4
20 165 2
20 166 10
20 167 1
20 169 6
20 170 6
20 174 2
20 176 1
20 177 8
20 179 5
20 180 7
20 182 3
20 183 9
20 184 9
20 185 4
20 187 1
20 188 1
20 189 2
20 190 1
20 191 7
20 192 5
20 193 8
20 195 3
20 196 1
20 198 7
20 199 3
20 200 7
20 202 7
20 204 9
20 205 9
20 206 10
20 208 7
20 209 6
20 211 4
20 213 3
20 215 8
20 216 5
20 217 6
20 218 1
20 219 8
20 220 9
20 224 7
20 225 5
20 226 10
20 227 7
20 228 5
20 229 10
20 230 1
20 231 8
20 232 1
20 233 10
20 234 6
20 237 5
20 240 9
20 241 7
20 242 1
20 244 1
20 245 1
20 246 9
20 248 2
20 249 5
20 250 5
20 251 4
20 252 1
20 253 1
20 254 9
20 255 3
20 256 7
20 257 10
20 259 2
20 260 1
20 263 5
20 265 5
20 266 2
20 267 3
20 268 7
20 270 4
20 271 3
20 272 10
20 276 4
20 277 8
20 278 4
20 280 5
20 281 8
20 282 7
20 283 7
20 286 2
20 287 1
20 288 10
20 289 6
20 291 6
20 292 3
20 293 6
20 294 2
20 295 7
20 297 1
20 298 5
20 299 3
20 300 4
21 23 10
21 25 6
21 28 8
21 30 2
21 31 2
21 32 2
21 34 5
21 38 8
21 39 1
21 40 7
21 41 5
21 42 3
21 45 3
21 47 10
21 49 10
21 50 7
21 51 5
21 52 9
21 54 9
21 55 8
21 56 5
21 59 4
21 60 10
21 63 10
21 64 9
21 65 1
21 67 9
21 68 3
21 73 9
21 75 8
21 76 7
21 77 5
21 78 10
21 80 6
21 81 10
21 83 8
21 84 10
21 85 4
21 86 3
21 88 6
21 89 6
21 90 8
21 92 2
21 95 9
21 96 8
21 97 8
21 98 8
21 99 5
21 100 1
21 101 9
21 102 9
21 103 2
21 104 3
21 105 4
21 106 9
21 108 5
21 111 8
21 112 4
21 113 6
21 114 7
21 115 10
21 116 3
21 118 3
21 119 8
21 123 4
21 125 8
21 126 4
21 127 8
21 128 8
21 130 1
21 132 5
21 135 3
21 136 5
21 137 6
21 138 3
21 139 1
21 143 8
21 144 10
21 146 3
21 147 4
21 148 1
21 149 3
21 150 2
21 151 9
21 152 3
21 153 8
21 154 5
21 155 2
21 156 10
21 163 4
21 164 5
21 166 10
21 167 1
21 171 10
21 172 9
21 173 2
21 174 2
21 175 7
21 176 9
21 177 10
21 178 10
21 180 1
21 181 2
21 183 4
21 184 4
21 185 5
21 189 9
21 190 7
21 191 4
21 192 8
21 193 6
21 194 7
21 195 6
21 197 9
21 198 2
21 199 10
21 200 3
21 201 5
21 202 4
21 203 10
21 205 2
21 207 1
21 209 9
21 210 6
21 211 7
21 212 5
21 213 8
21 214 7
21 215 8
21 216 9
21 217 9
21 218 3
21 219 7
21 221 10
21 222 3
21 223 10
21 225 1
21 226 4
21 228 4
21 229 8
21 230 5
21 231 5
21 233 2
21 236 7
21 238 6
21 239 7
21 240 10
21 241 4
21 242 7
21 244 7
21 246 9
21 248 8
21 249 8
21 251 3
21 253 9
21 255 1
21 256 9
21 257 9
21 258 9
21 260 6
21 262 8
21 264 2
21 265 5
21 267 4
21 268 9
21 271 9
21 272 8
21 273 9
21 274 7
21 275 1
21 276 1
21 277 8
21 278 9
21 279 6
21 280 1
21 281 7
21 282 4
21 284 2
21 286 4
21 290 7
21 291 5
21 292 8
21 293 7
21 295 6
21 298 9
21 299 6
22 23 7
22 26 7
22 27 10
22 28 3
22 31 3
22 34 5
22 35 9
22 36 3
22 38 6
22 39 5
22 40 10
22 42 10
22 43 3
22 44 7
22 45 1
22 46 4
22 47 6
22 48 7
22 51 1
22 52 2
22 54 3
22 55 5
22 57 1
22 58 7
22 59 7
22 61 9
22 62 1
22 63 8
22 64 6
22 66 8
22 67 5
22 68 10
22 70 9
22 71 9
22 72 7
22 73 7
22 74 3
22 75 6
22 76 3
22 79 5
22 80 5
22 84 9
22 86 10
22 87 4
22 88 6
22 89 8
22 92 5
22 95 4
22 96 8
22 97 3
22 100 3
22 101 9
22 102 9
22 103 7
22 105 6
22 106 10
22 109 10
22 113 3
22 114 8
22 116 6
22 117 5
22 120 5
22 121 8
22 122 1
22 123 3
22 124 2
22 125 1
22 128 3
22 129 2
22 131 2
22 133 8
22 134 2
22 137 1
22 138 5
22 139 1
22 140 3
22 141 2
22 144 8
22 146 5
22 148 10
22 149 4
22 150 1
22 152 3
22 153 10
22 154 8
22 155 6
22 156 4
22 157 1
22 158 8
22 159 6
22 160 10
22 162 2
22 163 5
22 164 3
22 165 7
22 166 1
22 167 10
22 170 5
22 171 9
22 173 1
22 174 10
22 175 8
22 176 6
22 177 7
22 178 10
22 181 7
22 182 6
22 183 9
22 184 8
22 186 4
22 187 7
22 188 5
22 189 4
22 191 3
22 192 2
22 193 9
22 194 6
22 195 8
22 197 1
22 199 9
22 200 4
22 201 4
22 202 7
22 203 9
22 204 5
22 205 5
22 206 10
22 207 4
22 208 9
22 211 10
22 215 7
22 217 7
22 218 6
22 219 4
22 221 3
22 222 2
22 223 6
22 224 5
22 225 9
22 227 9
22 228 6
22 229 4
22 232 1
22 233 10
22 235 9
22 236 10
22 237 4
22 238 9
22 241 1
22 242 4
22 243 9
22 244 5
22 245 2
22 246 6
22 247 1
22 248 9
22 249 6
22 250 10
22 251 9
22 252 5
22 253 8
22 256 10
22 257 8
22 258 2
22 259 2
22 260 3
22 261 3
22 262 7
22 264 2
22 265 6
22 268 6
22 272 1
22 273 8
22 274 6
22 275 3
22 277 9
22 281 6
22 284 9
22 285 3
22 287 5
22 289 7
22 290 1
22 292 3
22 293 2
22 295 4
22 296 1
22 297 7
22 298 3
23 26 4
23 27 1
23 28 8
23 30 1
23 31 5
23 32 9
23 33 8
23 34 8
23 35 8
23 36 1
23 40 8
23 41 1
23 42 6
23 43 4
23 44 4
23 45 8
23 47 1
23 48 5
23 49 4
23 50 3
23 51 10
23 52 7
23 53 3
23 54 6
23 58 3
23 59 9
23 63 6
23 65 5
23 68 3
23 69 8
23 71 9
23 72 3
23 73 8
23 75 4
23 76 10
23 77 6
23 78 9
23 79 7
23 82 10
23 84 7
23 85 3
23 86 7
23 87 9
23 89 3
23 92 3
23 93 2
23 94 8
23 99 5
23 100 9
23 101 8
23 102 6
23 104 6
23 105 10
23 108 3
23 110 6
23 111 7
23 112 5
23 113 9
23 116 1
23 117 1
23 119 6
23 120 8
23 121 10
23 122 7
23 123 6
23 124 9
23 125 10
23 126 1
23 129 8
23 131 3
23 132 1
23 133 3
23 134 9
23 138 4
23 139 7
23 140 3
23 141 6
23 144 3
23 145 1
23 146 3
23 147 9
23 148 3
23 149 4
23 150 9
23 151 3
23 152 4
23 153 2
23 154 5
23 155 1
23 156 7
23 159 7
23 160 10
23 162 10
23 163 3
23 164 1
23 165 8
23 166 10
23 167 3
23 168 8
23 169 7
23 172 9
23 173 1
23 174 5
23 175 2
23 176 10
23 177 8
23 178 2
23 179 6
23 180 10
23 181 9
23 182 9
23 183 1
23 184 10
23 186 2
23 188 1
23 191 9
23 192 9
23 193 8
23 194 1
23 196 9
23 197 8
23 198 2
23 199 5
23 200 8
23 201 5
23 202 5
23 204 2
23 205 10
23 206 10
23 207 9
23 211 2
23 212 6
23 213 6
23 215 2
23 216 9
23 217 9
23 219 1
23 220 2
23 221 5
23 222 6
23 223 1
23 224 6
23 225 3
23 226 7
23 227 6
23 228 7
23 230 2
23 231 3
23 232 4
23 233 4
23 234 2
23 237 10
23 238 8
23 240 9
23 241 3
23 242 2
23 243 3
23 245 5
23 246 9
23 247 10
23 249 9
23 250 8
23 251 8
23 253 1
23 254 1
23 256 10
23 257 6
23 258 9
23 259 10
23 260 4
23 261 9
23 262 3
23 263 6
23 264 10
23 265 8
23 266 5
23 267 2
23 268 5
23 269 5
23 270 1
23 271 1
23 273 5
23 274 2
23 275 3
23 276 1
23 277 6
23 278 8
23 279 5
23 282 2
23 283 5
23 285 6
23 286 5
23 289 5
23 290 7
23 291 4
23 293 8
23 294 5
23 297 4
23 298 2
23 299 3
24 25 9
24 26 8
24 27 3
24 28 4
24 29 1
24 30 2
24 31 2
24 34 5
24 35 10
24 36 10
24 37 2
24 38 3
24 39 7
24 41 10
24 43 5
24 45 8
24 46 5
24 47 5
24 48 10
24 49 4
24 51 5
24 52 3
24 53 10
24 55 2
24 56 4
24 57 8
24 58 8
24 59 7
24 60 8
24 61 9
24 62 5
24 63 8
24 64 9
24 66 8
24 67 4
24 68 4
24 70 6
24 72 10
24 73 2
24 75 4
24 76 10
24 77 5
24 78 2
24 79 10
24 80 1
24 81 1
24 83 9
24 84 4
24 85 10
24 86 6
24 87 9
24 88 4
24 89 8
24 90 3
24 91 9
24 92 8
24 93 8
24 94 7
24 96 3
24 97 2
24 99 4
24 100 5
24 102 5
24 103 4
24 104 9
24 105 1
24 106 6
24 110 4
24 111 4
24 112 3
24 114 10
24 115 10
24 117 1
24 119 8
24 120 6
24 121 10
24 122 8
24 125 1
24 127 8
24 128 2
24 129 3
24 130 6
24 132 9
24 133 8
24 134 6
24 136 10
24 137 10
24 138 1
24 140 4
24 142 4
24 143 3
24 147 2
24 148 7
24 149 5
24 150 8
24 153 3
24 156 5
24 157 8
24 158 8
24 159 4
24 161 6
24 162 4
24 164 6
24 165 8
24 166 3
24 167 8
24 169 9
24 170 1
24 171 7
24 172 1
24 178 10
24 179 6
24 181 6
24 183 10
24 184 5
24 185 8
24 186 9
24 187 9
24 189 4
24 192 9
24 193 9
24 194 10
24 196 5
24 198 6
24 200 10
24 201 7
24 202 6
24 203 5
24 204 2
24 205 4
24 206 9
24 207 2
24 210 2
24 212 9
24 214 5
24 216 10
24 217 7
24 219 9
24 220 2
24 221 6
24 222 1
24 223 3
24 224 6
24 226 4
24 227 8
24 228 10
24 229 6
24 230 1
24 231 2
24 232 2
24 233 4
24 235 3
24 237 2
24 238 8
24 239 6
24 241 7
24 242 1
24 243 1
24 244 7
24 245 6
24 246 8
24 247 8
24 248 8
24 249 7
24 250 8
24 251 5
24 252 7
24 253 1
24 254 3
24 256 9
24 257 10
24 259 7
24 261 6
24 265 4
24 266 8
24 269 6
24 272 1
24 274 2
24 275 4
24 279 6
24 280 6
24 282 7
24 283 8
24 284 4
24 286 3
24 287 4
24 288 2
24 291 4
24 292 2
24 294 1
24 295 1
24 297 7
24 298 2
24 300 7
25 26 1
25 27 9
25 28 2
25 29 6
25 30 7
25 31 9
25 32 7
25 33 3
25 35 5
25 38 5
25 40 4
25 41 6
25 43 8
25 45 10
25 46 3
25 47 10
25 49 9
25 50 2
25 52 6
25 53 10
25 54 7
25 55 9
25 56 8
25 57 6
25 58 6
25 61 1
25 62 6
25 63 2
25 64 2
25 65 10
25 66 4
25 68 10
25 69 7
25 70 1
25 72 7
25 74 9
25 75 8
25 77 1
25 78 9
25 79 3
25 80 7
25 82 6
25 83 2
25 84 2
25 86 2
25 88 3
25 89 7
25 90 5
25 91 1
25 92 6
25 94 3
25 95 10
25 96 8
25 97 3
25 98 9
25 99 8
25 101 6
25 103 4
25 105 5
25 107 10
25 110 3
25 111 4
25 112 3
25 113 4
25 114 2
25 115 2
25 116 7
25 117 2
25 118 2
25 119 6
25 120 7
25 123 4
25 124 8
25 126 9
25 127 7
25 128 3
25 129 2
25 130 6
25 131 2
25 134 10
25 135 3
25 136 6
25 137 5
25 139 5
25 140 9
25 141 10
25 142 1
25 144 9
25 145 7
25 146 7
25 147 1
25 148 7
25 149 5
25 151 7
25 152 2
25 153 5
25 154 6
25 156 2
25 158 4
25 159 4
25 161 4
25 163 5
25 164 6
25 168 3
25 171 10
25 172 9
25 173 1
25 175 1
25 176 4
25 177 1
25 179 2
25 180 8
25 181 2
25 182 3
25 185 4
25 187 5
25 188 10
25 192 10
25 194 5
25 195 10
25 196 5
25 198 9
25 200 7
25 202 7
25 203 9
25 205 1
25 207 4
25 208 2
25 210 7
25 211 9
25 212 4
25 215 5
25 216 5
25 218 10
25 219 1
25 220 7
25 222 9
25 223 9
25 224 8
25 225 8
25 226 2
25 227 3
25 229 10
25 232 3
25 233 2
25 234 4
25 235 7
25 236 5
25 237 9
25 238 7
25 240 5
25 241 1
25 242 1
25 243 3
25 246 8
25 247 4
25 248 3
25 249 1
25 250 6
25 251 8
25 253 5
25 254 1
25 255 3
25 257 9
25 258 6
25 259 7
25 260 1
25 263 1
25 264 5
25 265 7
25 266 3
25 267 7
25 268 5
25 269 6
25 270 9
25 271 7
25 273 10
25 275 3
25 276 10
25 277 3
25 278 2
25 279 5
25 282 4
25 285 6
25 287 3
25 288 2
25 290 8
25 292 10
25 295 10
25 296 4
25 299 7
25 300 6
26 27 9
26 28 8
26 29 4
26 30 9
26 33 9
26 34 10
26 35 8
26 37 7
26 38 3
26 39 1
26 40 1
26 41 6
26 43 10
26 44 1
26 45 3
26 46 2
26 47 6
26 48 7
26 49 1
26 50 3
26 52 2
26 53 2
26 54 9
26 55 7
26 56 8
26 57 5
26 58 5
26 59 4
26 62 5
26 63 7
26 64 5
26 65 2
26 66 6
26 68 3
26 69 9
26 71 5
26 73 4
26 74 5
26 75 3
26 78 2
26 79 5
26 81 3
26 83 9
26 84 8
26 85 4
26 86 3
26 88 4
26 89 5
26 90 10
26 91 9
26 92 9
26 94 6
26 96 8
26 98 1
26 99 10
26 101 2
26 102 10
26 103 2
26 104 9
26 105 1
26 106 3
26 109 9
26 111 6
26 113 4
26 115 9
26 116 4
26 117 1
26 120 3
26 121 4
26 122 2
26 123 3
26 124 1
26 126 9
26 127 7
26 128 7
26 129 1
26 130 2
26 132 5
26 133 7
26 135 8
26 136 6
26 137 10
26 138 10
26 139 4
26 140 5
26 141 10
26 142 2
26 143 6
26 145 4
26 149 1
26 150 1
26 151 10
26 152 3
26 153 3
26 154 1
26 157 6
26 162 6
26 164 8
26 165 6
26 166 5
26 169 1
26 170 6
26 172 2
26 174 8
26 177 4
26 179 1
26 180 6
26 181 8
26 183 9
26 184 10
26 185 4
26 186 4
26 187 3
26 188 5
26 190 1
26 192 1
26 193 8
26 194 6
26 195 8
26 196 10
26 198 3
26 200 9
26 201 9
26 202 9
26 203 9
26 204 3
26 205 5
26 207 9
26 208 9
26 209 7
26 211 1
26 212 8
26 213 10
26 214 7
26 215 5
26 216 7
26 217 1
26 218 10
26 219 9
26 222 1
26 223 1
26 224 10
26 228 8
26 229 6
26 230 2
26 233 2
26 234 10
26 235 10
26 236 10
26 237 10
26 238 3
26 240 1
26 241 10
26 242 9
26 243 4
26 246 7
26 247 5
26 248 7
26 249 3
26 250 2
26 252 1
26 253 1
26 256 5
26 257 8
26 259 10
26 262 2
26 263 10
26 265 2
26 266 7
26 267 4
26 270 7
26 272 7
26 273 10
26 276 4
26 278 8
26 279 9
26 280 4
26 281 2
26 282 10
26 283 8
26 285 10
26 287 5
26 288 1
26 289 5
26 290 8
26 291 3
26 293 7
26 294 1
26 296 10
26 297 4
26 298 7
26 299 4
27 28 10
27 29 9
27 31 8
27 32 2
27 33 1
27 35 6
27 36 6
27 39 1
27 41 5
27 44 4
27 46 9
27 47 5
27 49 10
27 54 4
27 55 6
27 57 9
27 58 5
27 59 10
27 60 7
27 61 7
27 62 4
27 64 4
27 65 3
27 66 8
27 68 9
27 69 4
27 70 3
27 71 9
27 74 6
27 75 7
27 77 10
27 78 2
27 79 7
27 80 2
27 81 5
27 82 7
27 85 4
27 86 2
27 87 6
27 89 6
27 90 8
27 91 9
27 92 1
27 93 5
27 95 3
27 96 1
27 99 4
27 101 9
27 102 9
27 103 8
27 105 8
27 107 3
27 112 5
27 114 9
27 117 5
27 118 4
27 120 5
27 121 10
27 122 4
27 124 8
27 126 7
27 127 9
27 128 3
27 129 1
27 132 3
27 133 4
27 134 2
27 135 10
27 136 10
27 137 5
27 138 9
27 139 10
27 140 9
27 141 2
27 142 2
27 143 5
27 145 4
27 146 8
27 147 5
27 150 5
27 152 3
27 156 4
27 157 10
27 160 4
27 161 8
27 162 9
27 163 1
27 164 9
27 165 2
27 166 9
27 167 5
27 169 1
27 170 8
27 171 9
27 172 5
27 173 7
27 174 6
27 175 5
27 176 8
27 180 7
27 181 1
27 182 1
27 183 10
27 184 2
27 185 1
27 188 3
27 189 10
27 190 9
27 192 4
27 193 3
27 195 10
27 196 7
27 199 9
27 200 8
27 201 8
27 202 5
27 203 4
27 205 3
27 208 1
27 209 5
27 210 10
27 211 4
27 212 1
27 213 3
27 215 4
27 216 6
27 217 10
27 218 10
27 219 7
27 220 10
27 222 7
27 223 8
27 226 10
27 227 4
27 228 3
27 229 6
27 230 7
27 232 10
27 235 4
27 236 9
27 238 2
27 241 3
27 242 6
27 243 8
27 245 6
27 246 1
27 247 10
27 248 2
27 249 4
27 252 7
27 253 7
27 254 6
27 255 4
27 259 6
27 261 4
27 262 9
27 264 9
27 266 10
27 267 6
27 268 9
27 269 5
27 270 2
27 279 1
27 280 6
27 281 9
27 282 1
27 283 9
27 287 1
27 288 7
27 289 4
27 290 5
27 291 3
27 292 6
27 293 2
27 295 5
27 296 4
27 297 7
27 299 4
27 300 1
28 29 7
28 30 9
28 31 10
28 33 7
28 34 5
28 35 10
28 36 1
28 37 5
28 40 9
28 41 4
28 42 6
28 43 9
28 44 2
28 45 3
28 46 10
28 47 1
28 49 4
28 50 5
28 51 2
28 52 2
28 54 4
28 55 7
28 56 2
28 57 2
28 58 3
28 60 6
28 61 4
28 63 1
28 64 3
28 65 2
28 66 3
28 67 5
28 68 8
28 69 10
28 70 8
28 71 3
28 72 4
28 73 5
28 74 7
28 75 4
28 77 5
28 78 6
28 79 9
28 80 3
28 81 10
28 83 8
28 84 7
28 85 6
28 86 1
28 87 10
28 88 6
28 89 4
28 90 7
28 92 8
28 93 3
28 94 7
28 95 1
28 97 7
28 99 8
28 100 2
28 102 2
28 103 7
28 105 8
28 106 7
28 107 3
28 108 9
28 109 6
28 111 8
28 113 2
28 115 3
28 116 2
28 118 9
28 119 4
28 120 2
28 121 5
28 122 6
28 123 8
28 126 2
28 127 4
28 128 6
28 129 10
28 130 2
28 131 2
28 133 1
28 134 6
28 135 7
28 137 5
28 139 6
28 140 9
28 141 4
28 142 7
28 143 2
28 144 1
28 147 8
28 150 6
28 151 5
28 154 5
28 155 3
28 156 3
28 157 2
28 158 3
28 159 9
28 160 2
28 161 1
28 162 2
28 163 9
28 164 8
28 165 8
28 166 1
28 167 4
28 168 10
28 169 3
28 170 1
28 171 5
28 173 2
28 176 5
28 177 9
28 178 8
28 179 10
28 180 9
28 181 10
28 182 4
28 183 5
28 184 6
28 185 2
28 186 5
28 187 6
28 188 1
28 189 3
28 190 5
28 191 1
28 194 7
28 195 1
28 197 3
28 199 6
28 200 9
28 201 6
28 202 9
28 203 6
28 204 3
28 205 7
28 206 9
28 209 2
28 210 8
28 211 1
28 212 3
28 213 9
28 214 5
28 215 5
28 217 6
28 218 3
28 223 5
28 224 4
28 225 2
28 226 10
28 227 4
28 230 9
28 232 1
28 234 4
28 235 8
28 236 10
28 237 4
28 238 3
28 239 2
28 240 1
28 244 9
28 245 3
28 247 6
28 249 6
28 251 4
28 252 6
28 253 9
28 254 9
28 256 5
28 257 9
28 258 3
28 260 6
28 261 3
28 262 1
28 263 4
28 264 1
28 265 1
28 268 2
28 270 7
28 271 1
28 273 6
28 274 4
28 275 3
28 277 9
28 280 8
28 281 3
28 282 10
28 283 2
28 284 8
28 285 9
28 286 1
28 287 5
28 289 9
28 292 10
28 294 10
28 297 8
28 298 8
28 300 1
29 30 4
29 31 10
29 32 4
29 33 9
29 34 2
29 35 10
29 38 2
29 40 2
29 42 5
29 45 7
29 46 4
29 47 9
29 48 1
29 49 5
29 50 9
29 51 7
29 53 9
29 54 10
29 55 1
29 56 6
29 57 6
29 58 10
29 59 2
29 62 9
29 63 10
29 64 6
29 66 6
29 67 2
29 68 9
29 69 3
29 70 1
29 72 8
29 73 6
29 75 7
29 76 10
29 77 10
29 78 10
29 80 3
29 81 8
29 82 7
29 83 10
29 84 9
29 85 6
29 86 1
29 87 4
29 88 10
29 90 2
29 93 7
29 94 6
29 95 9
29 96 3
29 97 2
29 98 3
29 101 3
29 102 9
29 103 3
29 104 10
29 106 10
29 107 6
29 108 10
29 111 1
29 112 2
29 114 2
29 115 1
29 116 7
29 117 7
29 119 4
29 120 3
29 121 10
29 122 1
29 123 3
29 124 1
29 127 9
29 128 3
29 130 9
29 132 7
29 135 10
29 136 5
29 139 5
29 140 4
29 141 8
29 142 6
29 143 5
29 144 7
29 145 10
29 149 3
29 150 6
29 151 6
29 152 10
29 153 2
29 154 3
29 156 5
29 157 6
29 158 7
29 159 10
29 161 5
29 164 6
29 165 5
29 167 8
29 168 4
29 169 5
29 170 3
29 171 6
29 173 2
29 174 6
29 175 3
29 176 7
29 177 8
29 179 2
29 180 8
29 181 7
29 182 8
29 183 3
29 184 2
29 185 8
29 186 5
29 187 3
29 188 4
29 190 8
29 191 6
29 193 9
29 196 10
29 197 6
29 198 6
29 200 7
29 203 7
29 204 4
29 206 4
29 207 2
29 208 6
29 209 7
29 211 3
29 213 10
29 214 3
29 215 5
29 217 10
29 219 5
29 220 2
29 221 3
29 223 8
29 224 2
29 225 3
29 226 2
29 227 4
29 228 10
29 229 1
29 230 8
29 231 5
29 232 8
29 233 3
29 234 1
29 235 4
29 237 2
29 241 9
29 242 10
29 243 10
29 250 3
29 253 4
29 254 3
29 255 1
29 256 10
29 257 7
29 258 3
29 259 10
29 260 3
29 261 9
29 262 3
29 265 7
29 266 3
29 268 9
29 269 8
29 271 6
29 274 3
29 275 6
29 276 4
29 277 8
29 279 5
29 280 2
29 281 8
29 282 10
29 283 7
29 284 3
29 285 8
29 286 3
29 287 7
29 288 1
29 289 5
29 291 9
29 292 7
29 293 10
29 295 8
29 296 7
29 298 7
29 300 7
30 31 1
30 32 7
30 33 8
30 36 3
30 37 6
30 38 1
30 39 3
30 40 8
30 42 2
30 43 6
30 44 5
30 45 7
30 46 10
30 47 3
30 48 7
30 49 3
30 50 3
30 51 10
30 52 8
30 53 3
30 54 4
30 55 8
30 56 8
30 57 7
30 58 7
30 59 4
30 60 1
30 61 3
30 62 3
30 63 7
30 64 2
30 67 10
30 69 2
30 71 10
30 75 4
30 76 5
30 78 7
30 79 4
30 81 4
30 82 10
30 83 3
30 84 1
30 85 3
30 87 7
30 88 9
30 89 4
30 90 1
30 91 8
30 94 10
30 97 9
30 98 9
30 99 6
30 100 2
30 102 7
30 103 2
30 104 7
30 105 2
30 106 3
30 108 2
30 111 5
30 112 9
30 114 9
30 115 10
30 116 2
30 118 6
30 119 7
30 120 6
30 121 9
30 122 10
30 123 7
30 126 7
30 127 9
30 128 8
30 129 6
30 130 4
30 131 8
30 133 5
30 134 4
30 135 1
30 138 7
30 139 2
30 141 2
30 142 3
30 143 9
30 144 1
30 145 10
30 147 3
30 148 2
30 149 9
30 150 3
30 151 5
30 154 10
30 156 10
30 158 9
30 159 9
30 161 3
30 162 4
30 163 3
30 164 7
30 165 3
30 166 6
30 167 4
30 168 5
30 169 4
30 172 4
30 173 1
30 174 3
30 177 3
30 178 9
30 179 7
30 180 3
30 181 10
30 183 8
30 185 8
30 186 3
30 188 3
30 189 10
30 192 6
30 194 2
30 195 4
30 196 8
30 198 3
30 199 9
30 200 9
30 201 5
30 202 1
30 203 9
30 205 3
30 206 4
30 207 3
30 209 4
30 210 7
30 211 7
30 212 6
30 213 5
30 214 7
30 216 7
30 218 8
30 219 2
30 220 7
30 221 4
30 222 3
30 224 8
30 225 3
30 226 10
30 228 10
30 232 9
30 236 5
30 237 6
30 239 9
30 240 10
30 241 7
30 242 7
30 243 6
30 249 6
30 251 4
30 254 5
30 255 8
30 256 6
30 257 5
30 259 2
30 261 5
30 262 6
30 264 6
30 265 10
30 266 4
30 269 3
30 270 2
30 271 3
30 272 3
30 274 4
30 279 5
30 280 5
30 281 7
30 282 10
30 283 1
30 284 10
30 285 8
30 287 8
30 288 4
30 292 5
30 293 1
30 294 7
30 295 8
30 296 8
30 297 8
30 298 7
30 299 3
30 300 2
31 32 6
31 33 2
31 34 8
31 36 10
31 37 2
31 38 5
31 40 4
31 41 3
31 42 3
31 43 3
31 45 2
31 48 5
31 49 2
31 50 9
31 56 9
31 57 4
31 58 3
31 59 9
31 60 1
31 64 6
31 65 1
31 66 10
31 67 3
31 68 5
31 69 5
31 71 6
31 72 8
31 73 8
31 75 2
31 76 7
31 78 2
31 79 8
31 80 10
31 81 6
31 82 5
31 83 10
31 84 4
31 86 7
31 88 1
31 89 5
31 91 1
31 94 4
31 95 1
31 96 4
31 99 8
31 100 7
31 101 1
31 103 3
31 104 7
31 107 9
31 108 6
31 110 10
31 111 5
31 113 9
31 117 4
31 120 4
31 121 10
31 122 1
31 124 9
31 125 10
31 126 8
31 127 6
31 128 6
31 129 2
31 130 6
31 131 3
31 133 2
31 136 10
31 137 9
31 139 2
31 140 6
31 143 4
31 144 2
31 145 5
31 147 8
31 148 6
31 150 9
31 152 5
31 154 6
31 156 6
31 157 7
31 159 2
31 161 7
31 162 1
31 163 2
31 164 6
31 165 8
31 166 7
31 167 9
31 169 5
31 170 2
31 171 4
31 173 6
31 175 2
31 178 4
31 179 2
31 180 4
31 183 2
31 185 10
31 186 10
31 187 8
31 189 8
31 191 9
31 194 7
31 195 4
31 196 7
31 197 1
31 199 4
31 201 2
31 203 8
31 204 1
31 205 4
31 206 10
31 207 3
31 208 8
31 209 5
31 211 7
31 212 10
31 213 10
31 215 5
31 216 6
31 217 2
31 218 4
31 219 5
31 222 6
31 224 9
31 225 3
31 226 8
31 227 6
31 228 6
31 229 5
31 230 9
31 232 8
31 234 9
31 235 7
31 237 8
31 238 1
31 239 3
31 240 4
31 241 4
31 242 5
31 243 2
31 245 4
31 246 5
31 247 3
31 251 10
31 252 7
31 253 5
31 255 2
31 256 7
31 257 3
31 259 2
31 261 5
31 262 4
31 264 3
31 265 7
31 266 3
31 267 8
31 268 10
31 269 7
31 270 5
31 271 8
31 272 3
31 273 8
31 274 8
31 276 5
31 278 1
31 281 4
31 282 2
31 285 5
31 288 2
31 289 10
31 290 5
31 291 3
31 292 10
31 293 8
31 296 3
31 299 9
31 300 10
32 33 5
32 35 8
32 37 1
32 41 2
32 42 7
32 44 7
32 47 2
32 52 10
32 53 5
32 55 5
32 56 7
32 57 1
32 58 7
32 59 4
32 60 10
32 61 7
32 62 7
32 63 6
32 66 2
32 67 10
32 68 6
32 69 1
32 70 6
32 71 6
32 72 9
32 73 5
32 75 9
32 79 8
32 80 5
32 82 6
32 83 6
32 84 4
32 86 1
32 89 3
32 90 3
32 92 5
32 93 9
32 94 3
32 95 9
32 96 6
32 97 10
32 98 2
32 100 9
32 101 2
32 102 2
32 104 10
32 105 5
32 106 7
32 107 2
32 109 8
32 110 6
32 111 9
32 113 1
32 115 9
32 116 10
32 117 4
32 120 4
32 123 2
32 124 4
32 125 3
32 126 2
32 127 4
32 129 10
32 130 2
32 131 7
32 132 8
32 133 9
32 134 1
32 135 4
32 136 1
32 138 1
32 139 2
32 140 2
32 142 1
32 143 9
32 144 9
32 145 8
32 146 4
32 147 1
32 148 5
32 150 9
32 151 9
32 152 7
32 154 6
32 155 7
32 157 7
32 159 9
32 160 6
32 161 9
32 162 2
32 163 5
32 164 5
32 165 8
32 166 8
32 167 7
32 168 4
32 169 3
32 170 1
32 172 4
32 173 8
32 174 8
32 175 7
32 177 6
32 178 6
32 179 10
32 180 3
32 181 1
32 183 4
32 184 2
32 185 5
32 187 4
32 188 3
32 189 2
32 190 10
32 191 4
32 192 1
32 195 2
32 197 10
32 199 2
32 200 8
32 201 3
32 202 3
32 203 7
32 204 4
32 207 3
32 208 7
32 209 10
32 210 9
32 211 3
32 214 8
32 215 3
32 216 10
32 217 1
32 219 9
32 220 2
32 222 7
32 223 7
32 224 8
32 226 4
32 227 3
32 228 5
32 230 7
32 232 6
32 233 6
32 235 1
32 236 2
32 237 2
32 238 7
32 240 2
32 246 10
32 247 10
32 249 1
32 251 4
32 254 3
32 255 10
32 256 6
32 258 8
32 259 6
32 261 2
32 262 5
32 264 3
32 265 4
32 266 1
32 267 8
32 270 8
32 271 7
32 272 2
32 273 4
32 274 5
32 275 1
32 277 3
32 278 7
32 279 3
32 281 2
32 282 1
32 283 4
32 284 10
32 285 6
32 286 6
32 287 4
32 288 10
32 289 2
32 290 7
32 292 2
32 293 4
32 298 7
32 299 10
32 300 9
33 34 3
33 35 3
33 36 3
33 38 9
33 39 10
33 40 5
33 41 7
33 42 10
33 45 10
33 46 10
33 47 10
33 48 7
33 51 8
33 53 5
33 54 5
33 56 6
33 57 4
33 61 9
33 63 5
33 66 4
33 67 1
33 68 3
33 70 8
33 72 10
33 73 8
33 74 1
33 76 2
33 77 7
33 78 6
33 79 7
33 80 1
33 82 3
33 84 9
33 86 8
33 87 3
33 89 2
33 91 8
33 92 5
33 93 7
33 94 6
33 96 4
33 97 2
33 98 7
33 99 1
33 101 5
33 104 1
33 106 6
33 107 4
33 108 4
33 110 2
33 111 10
33 112 8
33 113 9
33 115 10
33 117 2
33 119 6
33 122 10
33 124 1
33 126 4
33 127 4
33 129 10
33 130 3
33 133 10
33 134 5
33 135 6
33 136 3
33 137 4
33 138 10
33 139 10
33 140 5
33 143 9
33 144 7
33 145 8
33 147 8
33 148 10
33 149 1
33 150 5
33 154 6
33 156 7
33 157 10
33 158 7
33 159 4
33 161 9
33 163 4
33 165 7
33 166 2
33 167 10
33 168 6
33 169 7
33 170 10
33 171 10
33 172 5
33 173 10
33 174 3
33 175 3
33 176 1
33 177 6
33 183 5
33 184 3
33 185 4
33 186 3
33 187 7
33 188 9
33 191 3
33 192 3
33 193 2
33 194 9
33 195 7
33 196 8
33 198 3
33 200 8
33 202 9
33 204 9
33 205 5
33 206 9
33 207 6
33 210 2
33 211 5
33 212 5
33 215 10
33 219 8
33 220 6
33 221 2
33 222 4
33 223 9
33 224 4
33 225 9
33 226 5
33 228 4
33 229 9
33 230 3
33 232 3
33 233 6
33 234 1
33 235 6
33 237 4
33 238 5
33 239 4
33 241 8
33 242 6
33 244 2
33 245 1
33 246 2
33 247 10
33 249 2
33 250 9
33 251 10
33 252 6
33 254 7
33 256 3
33 257 4
33 258 10
33 260 8
33 261 8
33 263 6
33 266 1
33 267 5
33 268 5
33 269 3
33 272 8
33 273 9
33 274 9
33 276 3
33 278 9
33 279 5
33 280 4
33 281 9
33 283 3
33 284 9
33 285 5
33 286 5
33 287 5
33 288 3
33 289 6
33 290 5
33 292 2
33 293 6
33 295 4
33 296 3
33 298 1
33 299 1
34 35 8
34 36 10
34 37 10
34 39 7
34 40 7
34 41 9
34 42 9
34 43 8
34 45 2
34 47 7
34 49 9
34 50 6
34 51 2
34 52 10
34 55 5
34 56 9
34 58 3
34 59 10
34 60 9
34 63 1
34 64 8
34 65 3
34 66 5
34 67 4
34 68 8
34 69 5
34 70 1
34 72 3
34 74 10
34 75 7
34 76 1
34 78 9
34 79 1
34 80 3
34 81 5
34 83 4
34 84 7
34 86 3
34 87 1
34 88 1
34 90 8
34 93 7
34 94 1
34 95 9
34 96 1
34 97 5
34 98 8
34 99 9
34 102 4
34 103 1
34 105 10
34 107 6
34 109 8
34 110 7
34 111 1
34 113 6
34 115 7
34 116 3
34 117 8
34 119 5
34 121 10
34 123 10
34 125 1
34 126 6
34 127 7
34 128 5
34 130 10
34 131 1
34 132 10
34 133 2
34 134 7
34 136 1
34 137 1
34 138 8
34 139 4
34 140 9
34 141 7
34 143 7
34 145 1
34 146 9
34 147 3
34 148 5
34 152 4
34 153 7
34 154 4
34 156 5
34 157 9
34 158 6
34 159 8
34 160 10
34 162 3
34 164 5
34 168 8
34 169 1
34 170 9
34 171 5
34 172 7
34 174 1
34 175 4
34 179 7
34 180 3
34 181 5
34 182 8
34 183 8
34 184 9
34 186 10
34 187 7
34 188 9
34 191 2
34 192 3
34 193 7
34 194 9
34 195 9
34 196 5
34 197 6
34 198 5
34 199 9
34 202 5
34 203 2
34 204 4
34 206 5
34 210 4
34 212 9
34 213 5
34 214 6
34 215 2
34 216 4
34 219 9
34 220 8
34 224 10
34 226 9
34 227 6
34 228 5
34 229 9
34 230 6
34 231 6
34 232 10
34 233 4
34 234 3
34 236 6
34 238 4
34 239 3
34 240 8
34 241 4
34 244 10
34 245 2
34 246 9
34 247 3
34 249 3
34 252 7
34 253 9
34 255 9
34 256 2
34 258 1
34 260 6
34 261 10
34 262 10
34 263 1
34 264 8
34 267 3
34 268 4
34 269 4
34 271 2
34 273 10
34 274 5
34 275 10
34 276 9
34 277 9
34 279 4
34 280 2
34 281 6
34 282 2
34 283 10
34 284 8
34 286 3
34 288 5
34 289 7
34 290 8
34 291 10
34 292 1
34 293 4
34 294 8
34 295 6
34 297 6
34 298 1
34 299 7
34 300 9
35 36 3
35 37 5
35 38 9
35 39 2
35 40 10
35 41 6
35 42 6
35 43 6
35 44 7
35 45 4
35 46 1
35 48 1
35 49 10
35 50 5
35 52 10
35 54 10
35 55 7
35 57 3
35 58 9
35 59 9
35 61 2
35 63 1
35 65 8
35 68 10
35 69 7
35 70 4
35 71 10
35 72 10
35 73 7
35 74 4
35 76 7
35 78 3
35 79 4
35 80 10
35 82 8
35 84 1
35 86 2
35 87 2
35 88 10
35 94 10
35 95 1
35 96 5
35 97 6
35 98 10
35 99 6
35 102 9
35 103 3
35 104 8
35 107 2
35 108 6
35 109 5
35 111 9
35 112 4
35 113 1
35 114 2
35 115 9
35 116 9
35 117 9
35 118 8
35 119 2
35 120 7
35 121 2
35 124 9
35 125 7
35 126 7
35 127 4
35 128 2
35 129 3
35 131 8
35 134 6
35 135 1
35 136 7
35 137 4
35 140 4
35 141 10
35 145 2
35 146 1
35 148 1
35 152 1
35 153 8
35 154 5
35 155 5
35 157 7
35 158 4
35 159 1
35 160 6
35 161 1
35 163 5
35 164 7
35 165 7
35 167 3
35 168 4
35 169 5
35 170 2
35 171 9
35 172 4
35 173 1
35 174 6
35 175 10
35 176 8
35 177 7
35 178 10
35 180 9
35 181 10
35 182 7
35 183 9
35 184 4
35 186 3
35 187 8
35 188 2
35 189 5
35 190 6
35 191 9
35 192 3
35 193 1
35 194 6
35 195 2
35 197 6
35 198 1
35 201 10
35 202 4
35 203 5
35 204 3
35 205 9
35 206 7
35 207 2
35 208 7
35 211 8
35 213 8
35 214 6
35 215 9
35 216 6
35 217 7
35 219 10
35 220 7
35 223 10
35 225 9
35 226 8
35 227 2
35 228 1
35 229 3
35 230 4
35 231 2
35 232 5
35 235 10
35 236 7
35 237 1
35 239 1
35 240 5
35 241 9
35 242 7
35 243 8
35 244 3
35 245 10
35 248 8
35 249 1
35 252 9
35 253 9
35 254 10
35 255 10
35 257 3
35 258 2
35 260 2
35 261 8
35 262 6
35 263 1
35 264 3
35 265 9
35 267 3
35 269 5
35 270 8
35 271 4
35 273 3
35 274 10
35 275 5
35 276 10
35 277 4
35 278 7
35 279 7
35 280 1
35 281 10
35 285 3
35 286 6
35 289 1
35 290 3
35 292 8
35 293 9
35 294 10
35 295 3
35 296 3
35 297 4
35 298 8
35 299 5
35 300 4
36 41 10
36 43 6
36 44 9
36 47 8
36 48 2
36 50 10
36 51 10
36 52 3
36 53 9
36 55 8
36 58 8
36 59 10
36 60 3
36 61 1
36 63 4
36 65 7
36 67 6
36 68 10
36 69 9
36 71 8
36 72 8
36 73 5
36 74 6
36 76 3
36 77 7
36 80 7
36 81 4
36 82 2
36 83 4
36 84 8
36 85 9
36 86 1
36 87 5
36 89 1
36 90 3
36 91 6
36 95 9
36 96 4
36 97 1
36 99 3
36 101 3
36 103 6
36 104 4
36 105 5
36 106 5
36 107 2
36 108 9
36 110 5
36 111 10
36 112 10
36 113 5
36 114 2
36 115 7
36 117 7
36 118 6
36 120 6
36 121 6
36 123 2
36 124 8
36 126 5
36 127 6
36 128 8
36 129 6
36 132 1
36 133 5
36 135 8
36 137 10
36 138 10
36 139 3
36 140 1
36 144 6
36 145 9
36 147 5
36 149 8
36 150 5
36 152 10
36 153 8
36 154 8
36 155 10
36 156 2
36 157 9
36 158 8
36 159 8
36 161 6
36 162 8
36 166 9
36 167 8
36 168 8
36 170 6
36 174 5
36 175 2
36 176 1
36 177 4
36 178 3
36 180 6
36 181 3
36 182 4
36 183 2
36 184 9
36 186 10
36 189 3
36 190 7
36 191 4
36 192 1
36 194 2
36 196 4
36 197 1
36 198 10
36 199 2
36 204 4
36 205 3
36 209 9
36 210 2
36 211 8
36 213 7
36 215 9
36 216 7
36 220 3
36 222 9
36 223 8
36 224 3
36 226 3
36 227 7
36 228 9
36 229 3
36 231 7
36 232 5
36 233 6
36 235 2
36 237 2
36 238 10
36 241 10
36 242 5
36 243 5
36 245 2
36 246 7
36 247 3
36 248 9
36 249 9
36 250 7
36 251 5
36 252 7
36 253 3
36 255 10
36 256 3
36 257 4
36 258 3
36 260 3
36 262 4
36 263 9
36 264 3
36 265 10
36 266 8
36 271 1
36 272 2
36 273 3
36 275 2
36 276 8
36 278 3
36 279 8
36 281 8
36 283 5
36 284 7
36 285 6
36 286 3
36 287 6
36 288 3
36 290 3
36 291 3
36 292 3
36 298 3
36 299 4
36 300 7
37 40 5
37 41 8
37 43 9
37 45 3
37 46 5
37 49 1
37 50 6
37 51 4
37 54 1
37 55 2
37 56 1
37 57 1
37 61 4
37 62 9
37 63 4
37 64 4
37 65 4
37 66 10
37 69 8
37 71 4
37 72 4
37 74 7
37 75 9
37 76 6
37 77 8
37 78 5
37 80 3
37 81 3
37 84 5
37 85 6
37 87 1
37 89 4
37 90 4
37 91 4
37 94 8
37 95 8
37 101 2
37 102 6
37 103 4
37 104 8
37 105 8
37 107 7
37 108 6
37 110 8
37 111 4
37 113 9
37 114 6
37 115 2
37 116 3
37 117 1
37 118 10
37 119 1
37 122 4
37 123 8
37 124 10
37 126 7
37 127 8
37 129 5
37 130 7
37 131 6
37 132 1
37 134 8
37 136 1
37 137 4
37 138 10
37 140 9
37 143 3
37 145 1
37 147 9
37 150 2
37 151 3
37 153 7
37 154 1
37 155 10
37 156 5
37 158 8
37 159 5
37 160 10
37 161 7
37 162 8
37 163 8
37 164 7
37 165 4
37 166 4
37 167 9
37 168 7
37 169 10
37 170 7
37 171 7
37 172 3
37 173 8
37 174 8
37 179 2
37 180 3
37 181 10
37 183 10
37 185 2
37 186 3
37 187 4
37 188 6
37 189 9
37 191 1
37 192 2
37 193 4
37 194 2
37 196 1
37 198 5
37 199 2
37 200 2
37 201 1
37 202 9
37 203 3
37 206 5
37 207 1
37 208 5
37 209 8
37 211 1
37 212 9
37 213 6
37 216 10
37 217 9
37 218 7
37 219 8
37 220 6
37 222 7
37 223 4
37 224 7
37 225 5
37 226 8
37 227 4
37 229 5
37 230 9
37 231 4
37 232 7
37 234 7
37 235 5
37 237 9
37 240 8
37 241 1
37 242 5
37 243 7
37 245 8
37 246 9
37 247 8
37 248 6
37 249 7
37 250 10
37 251 9
37 252 3
37 254 7
37 255 2
37 256 8
37 258 8
37 260 6
37 262 7
37 264 10
37 267 7
37 268 10
37 269 1
37 270 3
37 271 5
37 272 2
37 273 10
37 274 3
37 276 1
37 278 4
37 282 10
37 283 2
37 284 4
37 285 6
37 286 8
37 288 9
37 289 3
37 294 3
37 295 6
37 296 8
37 297 3
37 298 3
37 299 10
37 300 1
38 39 9
38 40 10
38 41 10
38 42 4
38 43 3
38 45 1
38 46 3
38 47 7
38 48 5
38 49 7
38 50 4
38 51 6
38 52 3
38 53 7
38 54 3
38 55 8
38 56 6
38 58 9
38 59 7
38 62 5
38 63 8
38 64 5
38 65 1
38 68 8
38 71 10
38 72 3
38 73 9
38 74 4
38 76 2
38 77 9
38 78 3
38 79 10
38 84 3
38 87 8
38 89 8
38 90 8
38 94 1
38 96 4
38 97 9
38 98 9
38 99 3
38 100 4
38 102 1
38 103 4
38 106 10
38 108 6
38 109 4
38 110 3
38 111 1
38 113 10
38 116 5
38 118 10
38 120 3
38 121 1
38 122 4
38 123 5
38 124 4
38 125 4
38 126 2
38 130 9
38 131 6
38 132 4
38 133 2
38 134 9
38 135 9
38 136 2
38 140 3
38 141 2
38 142 6
38 143 6
38 144 4
38 145 2
38 146 3
38 148 3
38 149 4
38 152 7
38 154 1
38 155 7
38 156 7
38 157 2
38 160 10
38 161 7
38 163 10
38 164 8
38 165 6
38 166 6
38 169 2
38 172 7
38 176 4
38 177 10
38 179 10
38 180 6
38 181 5
38 182 7
38 183 2
38 185 3
38 186 10
38 187 5
38 188 10
38 189 10
38 190 6
38 191 8
38 192 10
38 193 9
38 195 6
38 196 1
38 197 7
38 198 9
38 199 10
38 202 1
38 204 4
38 205 9
38 206 9
38 207 9
38 208 5
38 209 9
38 210 7
38 211 8
38 213 6
38 214 10
38 215 2
38 216 10
38 217 1
38 218 7
38 219 9
38 220 10
38 222 5
38 224 7
38 226 5
38 228 3
38 230 3
38 231 6
38 233 9
38 234 8
38 235 5
38 236 4
38 237 1
38 239 5
38 240 3
38 241 1
38 243 8
38 244 9
38 246 9
38 247 7
38 249 3
38 251 3
38 252 5
38 254 1
38 256 3
38 257 1
38 258 6
38 259 4
38 260 2
38 262 10
38 263 8
38 265 1
38 266 7
38 268 9
38 270 9
38 271 2
38 273 8
38 274 7
38 275 8
38 277 8
38 278 1
38 279 5
38 281 6
38 283 7
38 285 3
38 286 1
38 287 2
38 288 4
38 289 4
38 290 8
38 291 3
38 292 3
38 293 8
38 294 6
38 296 9
38 297 4
38 298 4
38 299 9
39 44 1
39 46 4
39 47 4
39 49 3
39 50 9
39 51 9
39 52 7
39 54 10
39 55 5
39 57 9
39 58 5
39 59 7
39 60 6
39 61 8
39 62 5
39 63 10
39 64 4
39 66 3
39 67 7
39 68 6
39 69 4
39 70 8
39 71 2
39 72 2
39 73 3
39 74 2
39 76 5
39 77 7
39 80 5
39 81 8
39 84 4
39 85 2
39 86 8
39 87 3
39 90 7
39 91 1
39 92 2
39 93 10
39 94 2
39 95 5
39 97 9
39 98 3
39 100 8
39 101 9
39 102 4
39 103 1
39 104 7
39 105 1
39 107 7
39 108 10
39 109 1
39 111 3
39 114 4
39 115 4
39 116 9
39 117 2
39 118 6
39 119 4
39 120 1
39 121 10
39 122 1
39 123 5
39 125 8
39 126 2
39 128 6
39 129 9
39 130 3
39 131 6
39 132 10
39 134 7
39 135 2
39 137 6
39 138 2
39 139 8
39 140 10
39 143 1
39 145 2
39 146 3
39 147 5
39 148 2
39 149 7
39 150 6
39 151 5
39 153 6
39 155 5
39 156 5
39 157 1
39 158 1
39 160 8
39 161 8
39 162 4
39 164 1
39 167 8
39 171 8
39 172 1
39 173 1
39 175 8
39 177 2
39 178 8
39 179 1
39 180 5
39 181 4
39 182 10
39 183 9
39 186 4
39 188 6
39 191 3
39 193 2
39 194 3
39 195 7
39 196 8
39 200 7
39 201 6
39 202 4
39 203 9
39 204 8
39 205 1
39 206 7
39 207 4
39 208 8
39 211 4
39 212 8
39 215 2
39 219 1
39 220 8
39 221 9
39 222 2
39 223 5
39 224 2
39 225 3
39 226 2
39 227 4
39 228 5
39 231 9
39 232 1
39 235 10
39 236 6
39 237 5
39 238 1
39 240 2
39 241 2
39 243 9
39 245 5
39 246 8
39 247 9
39 249 1
39 250 10
39 253 3
39 254 2
39 255 7
39 256 1
39 257 3
39 258 10
39 262 10
39 264 1
39 265 9
39 268 3
39 269 3
39 270 8
39 271 4
39 272 4
39 274 4
39 275 4
39 276 5
39 278 7
39 280 1
39 281 1
39 282 1
39 284 6
39 285 8
39 287 8
39 288 4
39 290 7
39 291 5
39 293 10
39 294 3
39 295 9
39 296 5
39 298 2
39 300 8
40 41 1
40 42 7
40 43 6
40 45 9
40 46 10
40 47 9
40 48 7
40 49 4
40 50 6
40 51 3
40 53 2
40 54 9
40 55 9
40 56 8
40 59 7
40 60 2
40 63 7
40 64 4
40 65 2
40 66 5
40 67 2
40 68 6
40 74 4
40 75 6
40 76 7
40 77 2
40 78 7
40 79 2
40 81 7
40 83 5
40 85 3
40 86 7
40 88 6
40 90 3
40 91 4
40 92 6
40 93 10
40 94 7
40 95 1
40 98 10
40 100 10
40 101 2
40 102 3
40 104 9
40 105 5
40 106 2
40 108 3
40 109 8
40 110 2
40 111 3
40 113 5
40 116 4
40 117 6
40 119 10
40 120 3
40 122 9
40 123 2
40 124 9
40 125 2
40 126 2
40 127 9
40 128 3
40 129 9
40 130 9
40 131 5
40 133 6
40 134 6
40 136 3
40 137 2
40 138 5
40 139 5
40 140 8
40 141 7
40 142 2
40 143 6
40 144 2
40 145 8
40 146 9
40 147 4
40 148 4
40 149 8
40 150 9
40 151 3
40 155 1
40 158 4
40 159 2
40 161 10
40 162 7
40 163 6
40 164 5
40 166 10
40 167 3
40 168 3
40 169 3
40 170 7
40 172 5
40 173 1
40 174 4
40 175 2
40 178 7
40 179 6
40 180 3
40 181 3
40 182 4
40 183 5
40 184 4
40 187 5
40 188 7
40 189 2
40 190 1
40 191 10
40 192 8
40 194 3
40 195 1
40 196 1
40 197 2
40 198 2
40 200 4
40 201 9
40 202 4
40 203 3
40 204 5
40 205 5
40 206 7
40 207 7
40 208 3
40 209 3
40 211 4
40 212 2
40 217 8
40 219 6
40 222 5
40 224 5
40 227 2
40 228 8
40 229 6
40 231 9
40 232 3
40 233 6
40 234 8
40 235 6
40 238 2
40 239 8
40 240 3
40 241 8
40 242 9
40 243 4
40 244 6
40 245 5
40 246 5
40 248 1
40 250 10
40 251 2
40 253 7
40 255 3
40 256 5
40 257 5
40 259 1
40 261 4
40 262 9
40 264 1
40 265 2
40 266 6
40 267 4
40 268 5
40 269 3
40 271 5
40 272 5
40 273 2
40 274 10
40 276 5
40 277 6
40 278 10
40 279 7
40 280 5
40 281 10
40 282 9
40 283 10
40 284 8
40 285 6
40 286 2
40 288 7
40 289 6
40 290 3
40 291 1
40 293 6
40 294 6
40 295 2
40 296 4
40 297 3
40 298 10
40 299 8
41 43 2
41 44 6
41 46 3
41 47 1
41 49 3
41 52 10
41 54 7
41 55 4
41 56 10
41 57 1
41 59 5
41 60 8
41 61 5
41 62 1
41 63 7
41 64 9
41 65 8
41 66 7
41 67 5
41 68 6
41 69 9
41 70 1
41 71 10
41 73 3
41 74 7
41 75 3
41 78 1
41 80 3
41 81 6
41 83 6
41 84 3
41 85 6
41 87 2
41 88 3
41 89 8
41 90 5
41 92 6
41 94 1
41 95 9
41 98 3
41 99 10
41 100 2
41 102 7
41 103 3
41 104 10
41 105 1
41 106 9
41 107 1
41 109 5
41 110 8
41 112 4
41 113 9
41 118 10
41 119 4
41 120 8
41 121 3
41 122 1
41 123 10
41 124 1
41 125 7
41 126 2
41 127 6
41 128 6
41 131 8
41 132 8
41 133 8
41 134 1
41 135 4
41 136 9
41 137 8
41 138 3
41 139 5
41 140 1
41 143 10
41 144 1
41 145 2
41 147 1
41 148 4
41 149 8
41 150 8
41 151 10
41 152 8
41 153 5
41 157 4
41 158 9
41 159 4
41 162 10
41 163 8
41 164 5
41 165 10
41 167 3
41 169 5
41 171 1
41 172 3
41 174 7
41 175 9
41 176 8
41 178 6
41 179 6
41 181 10
41 186 10
41 187 1
41 188 9
41 192 9
41 193 4
41 194 7
41 195 9
41 196 9
41 197 5
41 198 10
41 201 8
41 202 1
41 203 3
41 204 5
41 205 10
41 209 5
41 210 9
41 212 9
41 213 5
41 214 1
41 217 1
41 218 2
41 219 1
41 220 5
41 221 10
41 224 4
41 225 6
41 227 1
41 228 2
41 229 4
41 230 5
41 231 6
41 232 9
41 234 9
41 235 6
41 236 4
41 238 10
41 239 3
41 240 4
41 241 2
41 242 7
41 243 3
41 244 3
41 245 9
41 248 6
41 250 8
41 251 7
41 252 7
41 253 8
41 254 8
41 258 2
41 259 8
41 260 1
41 262 7
41 263 7
41 264 8
41 265 3
41 266 1
41 267 1
41 268 4
41 270 2
41 272 6
41 275 10
41 276 10
41 278 1
41 279 6
41 283 2
41 286 6
41 287 3
41 288 1
41 289 5
41 290 5
41 291 4
41 292 10
41 293 5
41 295 2
41 296 10
41 297 7
41 298 6
41 299 7
42 43 6
42 44 10
42 45 7
42 46 6
42 49 4
42 50 5
42 51 1
42 53 9
42 54 5
42 55 6
42 56 8
42 57 6
42 58 7
42 62 8
42 63 10
42 65 2
42 66 2
42 67 7
42 68 9
42 70 2
42 71 10
42 72 10
42 73 8
42 75 3
42 76 4
42 77 6
42 78 7
42 79 5
42 80 6
42 81 3
42 82 3
42 83 3
42 84 10
42 85 5
42 87 7
42 89 5
42 91 2
42 92 3
42 93 5
42 94 1
42 95 2
42 97 9
42 98 4
42 99 5
42 100 8
42 102 8
42 103 4
42 105 3
42 107 7
42 108 5
42 110 2
42 112 3
42 113 4
42 114 8
42 115 10
42 117 5
42 119 10
42 120 10
42 121 8
42 122 6
42 123 2
42 124 9
42 125 10
42 126 4
42 128 4
42 129 3
42 131 7
42 132 3
42 134 8
42 135 1
42 136 10
42 137 8
42 138 3
42 139 1
42 140 2
42 141 8
42 142 8
42 143 10
42 144 10
42 145 2
42 146 3
42 147 6
42 150 8
42 153 3
42 154 4
42 155 1
42 157 3
42 158 7
42 159 6
42 160 3
42 162 9
42 163 4
42 164 7
42 165 7
42 166 8
42 168 4
42 169 8
42 170 1
42 171 8
42 172 5
42 174 7
42 175 7
42 177 8
42 178 7
42 179 4
42 180 5
42 182 9
42 183 3
42 184 5
42 185 10
42 186 1
42 187 3
42 188 4
42 189 8
42 190 2
42 192 9
42 194 2
42 195 1
42 196 6
42 199 6
42 200 3
42 202 7
42 205 7
42 206 4
42 207 10
42 209 7
42 210 6
42 211 9
42 213 8
42 214 6
42 215 5
42 216 10
42 217 6
42 219 8
42 221 10
42 222 1
42 223 4
42 224 2
42 226 1
42 227 4
42 228 3
42 229 1
42 230 8
42 232 4
42 233 4
42 235 4
42 237 8
42 238 8
42 240 9
42 241 2
42 243 9
42 245 8
42 246 7
42 247 1
42 248 6
42 249 6
42 251 4
42 252 2
42 253 6
42 257 8
42 258 4
42 259 1
42 260 10
42 261 4
42 262 1
42 264 1
42 265 3
42 266 3
42 267 2
42 269 1
42 270 3
42 271 8
42 274 4
42 275 7
42 277 7
42 278 3
42 279 6
42 280 2
42 281 3
42 282 2
42 284 7
42 285 2
42 287 2
42 290 5
42 291 10
42 292 8
42 294 5
42 295 5
42 296 1
42 297 7
42 298 9
42 300 8
43 45 10
43 46 5
43 48 4
43 49 3
43 50 6
43 51 6
43 53 3
43 54 3
43 56 2
43 58 2
43 59 3
43 60 9
43 61 6
43 63 6
43 64 5
43 65 8
43 67 3
43 68 1
43 69 7
43 70 6
43 72 2
43 73 5
43 75 6
43 76 10
43 78 6
43 82 9
43 83 9
43 85 6
43 88 6
43 90 1
43 93 7
43 94 10
43 95 3
43 96 4
43 97 7
43 98 9
43 99 4
43 100 3
43 101 4
43 102 7
43 104 5
43 105 6
43 107 2
43 109 5
43 110 2
43 111 10
43 114 5
43 115 8
43 117 1
43 120 4
43 122 2
43 123 2
43 124 5
43 126 7
43 128 10
43 129 9
43 131 7
43 132 5
43 133 9
43 134 9
43 136 2
43 137 1
43 142 1
43 146 6
43 148 6
43 150 3
43 151 4
43 153 2
43 154 1
43 155 4
43 156 9
43 158 5
43 159 5
43 160 2
43 161 8
43 163 9
43 164 1
43 165 9
43 166 10
43 167 10
43 168 6
43 169 2
43 171 2
43 172 3
43 175 5
43 176 6
43 179 4
43 180 8
43 183 8
43 186 6
43 187 1
43 191 1
43 192 10
43 193 4
43 194 4
43 197 9
43 199 6
43 201 8
43 203 5
43 205 8
43 207 3
43 208 4
43 210 9
43 211 3
43 212 1
43 213 7
43 214 8
43 215 7
43 216 4
43 217 7
43 218 1
43 220 10
43 222 5
43 223 1
43 224 6
43 225 2
43 226 7
43 227 6
43 228 8
43 230 10
43 231 6
43 232 7
43 234 2
43 235 2
43 236 10
43 237 10
43 238 4
43 240 6
43 241 5
43 242 3
43 243 5
43 244 5
43 246 7
43 247 2
43 249 3
43 250 2
43 251 4
43 253 6
43 256 2
43 257 6
43 258 2
43 259 10
43 260 3
43 262 2
43 263 9
43 264 2
43 266 6
43 267 1
43 268 2
43 269 4
43 271 3
43 272 6
43 274 1
43 275 4
43 276 9
43 278 7
43 279 7
43 280 6
43 281 1
43 283 4
43 284 2
43 285 1
43 286 5
43 287 5
43 288 8
43 289 8
43 290 10
43 291 1
43 293 6
43 294 1
43 295 7
43 296 8
43 298 4
43 299 5
44 45 5
44 47 5
44 48 6
44 49 10
44 50 1
44 51 1
44 52 9
44 53 3
44 54 3
44 56 6
44 57 3
44 58 3
44 59 7
44 61 5
44 64 5
44 65 7
44 66 4
44 69 7
44 70 2
44 71 5
44 72 6
44 73 3
44 74 8
44 75 5
44 76 7
44 77 9
44 79 6
44 80 10
44 81 1
44 82 8
44 84 9
44 88 7
44 89 7
44 90 4
44 91 7
44 92 1
44 93 4
44 94 9
44 96 2
44 97 9
44 98 3
44 100 3
44 101 5
44 102 1
44 103 4
44 105 8
44 108 5
44 109 1
44 110 6
44 111 1
44 112 2
44 113 2
44 114 3
44 115 9
44 116 10
44 117 3
44 118 8
44 120 3
44 121 10
44 122 1
44 123 7
44 125 8
44 126 2
44 128 5
44 129 7
44 134 7
44 135 8
44 136 10
44 137 10
44 138 5
44 140 5
44 142 6
44 143 8
44 144 9
44 145 5
44 146 7
44 149 6
44 150 5
44 151 4
44 152 8
44 153 10
44 154 2
44 155 2
44 156 5
44 158 7
44 159 10
44 161 8
44 162 5
44 163 3
44 164 10
44 165 3
44 167 3
44 168 4
44 169 7
44 171 10
44 172 10
44 173 9
44 175 9
44 177 3
44 178 9
44 179 6
44 180 8
44 181 9
44 183 10
44 184 2
44 185 5
44 186 5
44 188 6
44 190 3
44 192 9
44 195 2
44 196 10
44 197 7
44 198 1
44 200 1
44 203 5
44 204 6
44 205 3
44 207 8
44 208 3
44 209 8
44 210 1
44 212 3
44 213 2
44 214 10
44 215 6
44 216 4
44 218 3
44 219 6
44 221 5
44 222 3
44 223 10
44 224 2
44 225 8
44 227 8
44 228 7
44 229 1
44 230 8
44 231 10
44 232 9
44 233 7
44 234 9
44 236 10
44 237 2
44 240 7
44 241 3
44 243 2
44 244 4
44 247 5
44 248 8
44 250 2
44 251 1
44 252 7
44 253 2
44 254 3
44 255 6
44 256 6
44 257 6
44 260 7
44 261 10
44 262 8
44 264 1
44 265 10
44 266 6
44 267 2
44 269 2
44 272 6
44 273 9
44 274 3
44 275 10
44 277 1
44 278 2
44 281 3
44 282 4
44 285 9
44 287 8
44 288 10
44 289 6
44 290 4
44 291 7
44 292 5
44 293 4
44 294 5
44 295 8
44 296 10
44 298 7
44 299 9
44 300 10
45 48 5
45 49 4
45 50 6
45 51 9
45 52 3
45 53 6
45 55 3
45 57 8
45 59 9
45 60 4
45 61 6
45 62 1
45 65 2
45 66 10
45 67 5
45 68 1
45 69 10
45 70 9
45 73 4
45 74 3
45 76 6
45 77 2
45 78 5
45 79 10
45 81 3
45 82 6
45 83 8
45 84 1
45 86 4
45 91 8
45 92 2
45 93 6
45 96 7
45 99 3
45 100 6
45 101 3
45 102 2
45 105 5
45 107 6
45 108 2
45 109 9
45 110 7
45 111 10
45 113 9
45 115 7
45 116 6
45 118 6
45 122 7
45 123 10
45 125 9
45 126 8
45 127 9
45 128 5
45 129 2
45 130 5
45 131 10
45 132 2
45 133 6
45 134 10
45 135 7
45 136 7
45 137 6
45 139 3
45 141 1
45 143 6
45 144 1
45 145 1
45 147 4
45 148 3
45 149 10
45 150 7
45 151 10
45 152 9
45 154 5
45 155 10
45 156 7
45 157 6
45 158 1
45 160 9
45 161 6
45 164 3
45 165 2
45 166 1
45 167 10
45 170 7
45 171 7
45 173 7
45 174 6
45 176 5
45 177 9
45 178 4
45 179 4
45 180 6
45 183 6
45 185 10
45 186 1
45 187 2
45 188 5
45 189 4
45 190 4
45 191 3
45 192 9
45 193 1
45 195 3
45 196 10
45 198 1
45 199 4
45 200 3
45 203 6
45 204 5
45 205 6
45 207 6
45 208 2
45 209 1
45 210 5
45 211 9
45 214 6
45 215 9
45 220 1
45 221 2
45 223 7
45 224 1
45 225 2
45 226 1
45 229 6
45 230 10
45 231 4
45 232 1
45 234 10
45 235 6
45 236 3
45 237 2
45 238 2
45 240 1
45 241 6
45 242 9
45 243 10
45 246 10
45 249 3
45 250 7
45 254 9
45 255 9
45 257 6
45 258 9
45 259 2
45 260 1
45 261 7
45 262 7
45 263 2
45 265 2
45 266 2
45 267 1
45 268 6
45 269 8
45 270 3
45 271 9
45 272 2
45 273 4
45 274 1
45 276 10
45 277 7
45 278 2
45 279 10
45 281 6
45 282 6
45 283 7
45 285 9
45 286 1
45 288 9
45 289 9
45 290 4
45 291 4
45 293 3
45 295 9
45 296 8
45 297 6
45 298 8
45 299 2
45 300 10
46 48 5
46 49 6
46 50 10
46 51 10
46 52 10
46 53 7
46 54 8
46 55 2
46 56 1
46 57 4
46 58 10
46 59 10
46 60 1
46 62 7
46 63 7
46 64 1
46 66 10
46 68 5
46 72 8
46 73 2
46 74 6
46 75 6
46 76 4
46 77 3
46 78 2
46 79 5
46 80 9
46 82 2
46 85 9
46 86 9
46 88 6
46 89 6
46 90 8
46 91 10
46 94 5
46 96 6
46 98 5
46 100 9
46 102 1
46 104 2
46 106 3
46 107 7
46 109 10
46 110 5
46 111 1
46 112 10
46 115 4
46 117 8
46 119 2
46 120 1
46 122 1
46 123 2
46 125 8
46 127 2
46 128 5
46 129 5
46 130 9
46 133 9
46 134 9
46 135 3
46 137 8
46 138 10
46 139 10
46 140 1
46 141 6
46 142 5
46 143 3
46 145 7
46 146 1
46 147 1
46 148 8
46 150 2
46 152 4
46 153 1
46 155 8
46 156 10
46 157 5
46 160 3
46 161 2
46 162 8
46 164 8
46 165 8
46 166 2
46 167 8
46 168 8
46 169 4
46 170 9
46 171 8
46 172 1
46 173 1
46 174 6
46 176 10
46 177 6
46 178 10
46 179 4
46 180 5
46 183 6
46 185 10
46 186 8
46 187 1
46 188 4
46 189 10
46 190 3
46 191 4
46 193 4
46 194 7
46 197 2
46 198 8
46 200 4
46 202 1
46 204 3
46 205 1
46 206 7
46 207 3
46 209 9
46 210 4
46 211 9
46 212 5
46 215 6
46 217 10
46 218 1
46 219 7
46 220 10
46 221 8
46 222 4
46 223 2
46 225 7
46 228 7
46 231 6
46 232 2
46 233 2
46 234 1
46 235 8
46 236 5
46 237 9
46 238 9
46 239 6
46 240 9
46 241 2
46 243 3
46 244 1
46 245 4
46 246 8
46 247 7
46 248 3
46 249 10
46 250 3
46 252 4
46 253 9
46 254 4
46 255 4
46 257 2
46 258 9
46 259 2
46 260 10
46 261 3
46 262 5
46 263 4
46 264 1
46 265 3
46 266 9
46 267 3
46 268 2
46 270 5
46 273 4
46 274 5
46 275 10
46 278 2
46 279 1
46 281 8
46 282 1
46 283 3
46 284 2
46 286 9
46 287 8
46 288 8
46 292 7
46 295 9
46 299 9
46 300 8
47 49 3
47 51 10
47 52 6
47 53 5
47 54 9
47 55 8
47 56 8
47 57 7
47 58 10
47 60 10
47 61 2
47 62 2
47 64 3
47 65 1
47 66 8
47 67 4
47 68 1
47 69 7
47 70 2
47 72 6
47 74 6
47 76 1
47 77 4
47 79 2
47 80 9
47 81 7
47 82 9
47 83 4
47 84 4
47 85 8
47 86 7
47 87 2
47 89 10
47 90 6
47 91 10
47 92 3
47 93 3
47 95 7
47 98 9
47 99 7
47 100 9
47 101 4
47 106 5
47 107 4
47 109 8
47 110 9
47 112 1
47 114 10
47 115 6
47 117 4
47 118 1
47 119 6
47 120 10
47 121 7
47 122 2
47 123 2
47 124 6
47 125 4
47 130 3
47 132 1
47 133 8
47 136 2
47 139 7
47 142 3
47 145 1
47 147 9
47 148 9
47 149 10
47 152 6
47 153 4
47 155 9
47 157 5
47 158 8
47 160 6
47 161 1
47 163 6
47 164 2
47 166 3
47 167 5
47 169 2
47 170 3
47 171 1
47 172 6
47 175 4
47 176 9
47 177 6
47 178 7
47 180 9
47 181 3
47 182 6
47 183 6
47 184 5
47 185 8
47 188 5
47 189 4
47 190 6
47 192 2
47 194 5
47 195 6
47 196 4
47 198 4
47 199 8
47 200 7
47 201 6
47 203 6
47 204 6
47 205 5
47 206 1
47 207 1
47 208 8
47 209 1
47 210 7
47 211 1
47 212 6
47 213 4
47 214 6
47 215 5
47 216 10
47 217 3
47 218 1
47 219 1
47 221 7
47 222 8
47 223 6
47 224 1
47 225 9
47 227 9
47 228 4
47 230 5
47 232 3
47 234 8
47 236 3
47 241 4
47 242 5
47 243 10
47 244 3
47 245 10
47 247 4
47 250 8
47 251 4
47 252 2
47 253 10
47 254 3
47 258 2
47 259 5
47 260 2
47 261 8
47 262 5
47 263 5
47 264 4
47 265 7
47 267 1
47 269 9
47 270 1
47 271 2
47 272 6
47 274 10
47 275 8
47 276 7
47 277 7
47 278 10
47 279 3
47 280 4
47 281 9
47 284 4
47 285 5
47 287 1
47 288 9
47 289 6
47 290 1
47 292 1
47 293 6
47 294 1
47 295 9
47 297 2
47 298 7
47 299 1
47 300 10
48 50 7
48 51 1
48 52 4
48 53 5
48 55 8
48 56 10
48 57 6
48 58 1
48 59 7
48 60 6
48 62 2
48 63 7
48 66 2
48 67 4
48 68 10
48 69 6
48 70 7
48 71 1
48 74 10
48 75 6
48 76 9
48 79 9
48 80 8
48 84 10
48 85 2
48 86 10
48 87 2
48 90 8
48 92 5
48 93 10
48 94 4
48 95 9
48 97 6
48 98 7
48 99 1
48 100 10
48 101 5
48 102 10
48 103 5
48 104 1
48 105 9
48 106 4
48 110 7
48 112 3
48 113 3
48 114 8
48 115 4
48 117 3
48 118 2
48 119 7
48 120 6
48 122 7
48 123 5
48 124 6
48 127 6
48 130 8
48 132 1
48 133 2
48 134 8
48 135 1
48 137 8
48 138 5
48 139 7
48 140 2
48 143 2
48 144 3
48 146 5
48 147 7
48 149 4
48 151 3
48 153 1
48 155 5
48 156 4
48 157 2
48 158 10
48 160 2
48 161 4
48 162 7
48 163 5
48 164 9
48 166 5
48 167 9
48 168 2
48 169 2
48 170 1
48 171 7
48 172 5
48 173 10
48 174 4
48 175 10
48 177 2
48 178 5
48 179 8
48 180 9
48 181 9
48 182 5
48 183 9
48 186 7
48 187 7
48 189 10
48 190 6
48 191 1
48 192 6
48 193 9
48 194 3
48 195 10
48 196 2
48 197 7
48 198 7
48 200 2
48 202 8
48 203 2
48 204 4
48 207 6
48 208 6
48 210 9
48 211 10
48 212 5
48 214 3
48 216 8
48 218 10
48 219 2
48 220 4
48 221 9
48 222 6
48 224 5
48 226 3
48 227 3
48 229 6
48 230 5
48 231 2
48 232 8
48 234 4
48 236 3
48 237 6
48 239 4
48 240 1
48 241 10
48 243 2
48 244 8
48 247 8
48 250 3
48 251 4
48 254 2
48 255 8
48 256 7
48 259 8
48 260 3
48 262 5
48 263 2
48 265 10
48 266 7
48 268 10
48 269 6
48 270 5
48 271 2
48 272 3
48 273 9
48 274 7
48 276 10
48 277 5
48 278 8
48 279 4
48 280 3
48 281 1
48 283 7
48 284 4
48 285 2
48 287 7
48 288 3
48 292 7
48 293 10
48 296 5
48 299 2
49 52 6
49 53 4
49 54 3
49 55 9
49 56 3
49 57 6
49 58 2
49 59 3
49 60 9
49 61 1
49 63 6
49 67 1
49 69 3
49 73 5
49 74 7
49 75 9
49 77 8
49 78 2
49 79 4
49 80 2
49 81 6
49 82 2
49 83 2
49 87 9
49 88 2
49 89 9
49 90 4
49 91 1
49 92 9
49 94 2
49 95 5
49 96 7
49 97 8
49 99 4
49 100 8
49 103 1
49 104 7
49 105 3
49 107 2
49 108 8
49 109 4
49 110 4
49 111 2
49 112 4
49 114 6
49 115 8
49 116 2
49 117 4
49 118 7
49 119 8
49 120 8
49 122 3
49 123 8
49 124 2
49 128 10
49 129 4
49 130 1
49 131 6
49 133 5
49 134 4
49 135 3
49 136 5
49 137 1
49 138 10
49 141 6
49 144 10
49 145 3
49 147 4
49 148 4
49 149 1
49 150 1
49 151 10
49 152 5
49 153 6
49 154 8
49 155 3
49 156 3
49 157 5
49 158 4
49 159 5
49 162 1
49 163 1
49 164 7
49 165 4
49 169 2
49 172 8
49 173 8
49 176 5
49 177 9
49 178 1
49 180 4
49 181 1
49 185 10
49 186 6
49 187 6
49 188 7
49 190 8
49 191 7
49 193 9
49 195 7
49 196 2
49 197 8
49 198 2
49 199 1
49 201 8
49 202 10
49 203 8
49 205 3
49 206 10
49 208 4
49 209 4
49 210 10
49 211 9
49 212 2
49 213 5
49 214 10
49 216 6
49 217 9
49 219 1
49 220 10
49 221 8
49 222 10
49 223 5
49 226 6
49 229 8
49 231 9
49 232 3
49 233 7
49 234 4
49 235 8
49 236 4
49 243 8
49 244 6
49 246 8
49 247 9
49 249 9
49 250 5
49 252 5
49 253 3
49 254 5
49 257 2
49 258 8
49 259 1
49 260 1
49 261 9
49 262 10
49 263 4
49 264 2
49 266 5
49 267 10
49 268 2
49 271 8
49 272 10
49 274 4
49 276 6
49 277 6
49 278 2
49 279 6
49 281 2
49 282 9
49 283 9
49 285 5
49 286 10
49 287 4
49 288 1
49 289 10
49 290 3
49 293 7
49 294 2
49 297 2
49 298 9
49 299 10
49 300 10
50 51 7
50 52 2
50 53 5
50 54 3
50 56 4
50 57 6
50 59 8
50 60 4
50 62 6
50 63 10
50 64 8
50 67 2
50 69 8
50 70 4
50 71 9
50 72 10
50 74 1
50 76 2
50 77 4
50 79 5
50 80 10
50 81 3
50 84 5
50 85 10
50 86 9
50 88 7
50 89 4
50 90 3
50 91 5
50 92 10
50 93 10
50 94 6
50 95 3
50 99 1
50 100 9
50 101 2
50 102 10
50 104 5
50 105 6
50 107 6
50 108 1
50 110 6
50 111 8
50 112 1
50 113 1
50 114 2
50 117 2
50 118 8
50 119 5
50 120 1
50 121 3
50 123 2
50 124 1
50 125 2
50 127 2
50 128 7
50 129 2
50 130 3
50 132 9
50 133 10
50 134 9
50 135 7
50 136 6
50 140 1
50 141 2
50 142 5
50 143 1
50 144 9
50 146 1
50 148 1
50 150 8
50 152 9
50 153 1
50 154 5
50 155 4
50 156 10
50 158 5
50 159 10
50 160 5
50 161 3
50 162 10
50 163 9
50 166 7
50 168 1
50 169 5
50 170 9
50 171 4
50 172 7
50 173 7
50 174 3
50 175 6
50 177 5
50 178 5
50 181 10
50 183 6
50 184 6
50 185 8
50 186 7
50 187 7
50 188 6
50 190 1
50 192 5
50 193 5
50 194 8
50 195 7
50 197 5
50 198 10
50 199 9
50 200 5
50 201 3
50 202 5
50 203 3
50 204 7
50 205 10
50 206 6
50 207 4
50 209 3
50 210 2
50 211 6
50 213 3
50 215 2
50 216 1
50 218 9
50 219 5
50 220 9
50 222 3
50 223 1
50 224 5
50 225 9
50 229 9
50 233 3
50 234 2
50 236 5
50 237 10
50 238 8
50 239 2
50 240 1
50 241 8
50 243 3
50 244 7
50 246 5
50 247 3
50 248 1
50 249 5
50 251 9
50 253 3
50 254 1
50 255 6
50 257 1
50 258 10
50 259 10
50 260 2
50 261 3
50 262 4
50 263 10
50 264 7
50 265 6
50 266 7
50 267 1
50 268 4
50 270 1
50 271 1
50 272 7
50 274 5
50 275 2
50 276 5
50 278 7
50 279 8
50 280 3
50 281 8
50 282 5
50 283 10
50 284 3
50 286 8
50 287 6
50 288 9
50 289 7
50 290 4
50 291 7
50 292 6
50 293 3
50 294 6
50 296 9
50 297 6
50 298 7
50 299 1
50 300 6
51 52 9
51 53 7
51 54 1
51 55 5
51 56 4
51 57 8
51 58 2
51 59 9
51 60 1
51 61 9
51 62 8
51 63 7
51 65 9
51 67 2
51 69 9
51 70 8
51 71 8
51 72 2
51 73 3
51 74 5
51 76 2
51 77 7
51 78 4
51 79 7
51 80 9
51 81 2
51 83 2
51 84 2
51 85 5
51 88 7
51 89 4
51 92 2
51 95 1
51 99 9
51 100 9
51 101 6
51 102 6
51 103 8
51 104 9
51 105 4
51 106 3
51 107 7
51 108 3
51 109 3
51 110 4
51 111 6
51 112 8
51 113 4
51 114 7
51 115 2
51 116 7
51 118 1
51 120 2
51 122 2
51 123 5
51 124 3
51 125 10
51 127 6
51 128 1
51 129 8
51 134 7
51 135 6
51 138 6
51 141 7
51 142 5
51 144 10
51 145 8
51 146 8
51 147 5
51 148 6
51 149 7
51 150 6
51 151 1
51 154 6
51 155 3
51 156 7
51 157 4
51 158 4
51 159 9
51 160 9
51 161 2
51 162 6
51 163 3
51 164 3
51 165 10
51 169 6
51 171 3
51 172 7
51 173 9
51 175 3
51 176 8
51 178 10
51 179 1
51 181 1
51 182 10
51 185 5
51 186 1
51 187 6
51 188 8
51 189 8
51 190 9
51 191 9
51 192 6
51 193 3
51 194 3
51 195 10
51 197 1
51 198 3
51 201 5
51 204 2
51 205 10
51 206 7
51 208 5
51 211 9
51 212 10
51 214 1
51 215 2
51 217 8
51 218 2
51 219 8
51 220 3
51 221 7
51 223 7
51 224 8
51 225 5
51 226 7
51 227 4
51 228 10
51 229 3
51 230 6
51 232 10
51 235 9
51 236 10
51 240 9
51 242 5
51 243 6
51 244 4
51 245 6
51 246 1
51 248 5
51 249 10
51 250 5
51 251 2
51 252 1
51 253 6
51 254 3
51 256 4
51 257 6
51 260 3
51 261 5
51 262 6
51 263 1
51 264 10
51 265 2
51 266 8
51 269 8
51 272 10
51 273 4
51 275 8
51 276 9
51 277 9
51 278 1
51 279 7
51 281 2
51 282 3
51 283 8
51 284 9
51 285 10
51 287 5
51 288 5
51 290 10
51 291 7
51 292 8
51 294 8
51 296 5
51 297 5
51 298 7
51 299 3
51 300 8
52 53 3
52 55 8
52 56 3
52 57 3
52 60 7
52 64 1
52 65 5
52 66 3
52 67 10
52 68 1
52 69 7
52 70 6
52 71 7
52 76 3
52 77 4
52 79 5
52 80 1
52 81 4
52 83 8
52 84 3
52 85 1
52 86 1
52 87 6
52 88 3
52 89 8
52 91 6
52 93 7
52 94 3
52 96 6
52 97 4
52 98 2
52 101 2
52 103 2
52 104 8
52 105 6
52 106 2
52 107 2
52 108 6
52 110 2
52 111 1
52 112 2
52 113 10
52 115 4
52 116 4
52 117 8
52 118 1
52 119 10
52 121 7
52 122 7
52 123 10
52 124 7
52 125 7
52 129 9
52 130 1
52 132 10
52 133 3
52 134 10
52 135 4
52 136 7
52 139 7
52 140 1
52 142 3
52 143 6
52 144 8
52 145 3
52 146 4
52 147 9
52 148 8
52 151 5
52 153 2
52 155 1
52 156 7
52 157 10
52 159 7
52 160 4
52 161 3
52 162 7
52 163 10
52 164 3
52 165 7
52 168 1
52 169 8
52 170 4
52 171 7
52 172 6
52 173 7
52 174 3
52 175 1
52 176 3
52 178 2
52 179 10
52 180 3
52 181 2
52 182 4
52 183 2
52 185 6
52 186 6
52 189 1
52 190 7
52 191 5
52 192 10
52 193 2
52 194 5
52 195 10
52 196 10
52 197 10
52 198 4
52 203 3
52 204 4
52 205 10
52 206 6
52 207 4
52 210 2
52 211 6
52 212 7
52 213 6
52 214 6
52 216 5
52 218 3
52 221 6
52 223 8
52 225 8
52 226 8
52 227 5
52 228 9
52 230 10
52 231 5
52 235 9
52 236 9
52 237 7
52 238 10
52 239 4
52 240 7
52 241 2
52 242 6
52 244 10
52 245 4
52 247 2
52 248 7
52 251 6
52 252 8
52 253 1
52 254 3
52 255 1
52 256 7
52 257 9
52 258 6
52 259 5
52 262 10
52 264 7
52 265 9
52 266 1
52 267 4
52 268 2
52 269 9
52 272 9
52 273 9
52 274 1
52 276 6
52 277 9
52 281 3
52 284 7
52 286 10
52 287 4
52 289 3
52 290 2
52 291 1
52 292 7
52 293 3
52 294 9
52 295 2
52 296 2
52 297 9
52 298 3
52 300 9
53 54 10
53 56 3
53 57 3
53 58 7
53 59 4
53 61 5
53 62 2
53 63 5
53 64 10
53 65 6
53 67 10
53 68 4
53 71 9
53 72 1
53 74 10
53 75 6
53 77 9
53 79 6
53 80 2
53 81 4
53 82 7
53 83 10
53 84 7
53 85 6
53 86 10
53 88 8
53 90 8
53 91 3
53 92 2
53 93 5
53 95 4
53 97 10
53 99 2
53 100 6
53 102 2
53 105 8
53 106 6
53 109 8
53 111 2
53 114 4
53 115 1
53 116 1
53 118 7
53 119 3
53 120 10
53 121 2
53 122 6
53 123 2
53 124 1
53 125 1
53 126 3
53 127 10
53 128 1
53 130 2
53 131 10
53 132 5
53 133 3
53 134 6
53 135 7
53 136 1
53 137 6
53 138 3
53 139 2
53 140 9
53 141 6
53 142 8
53 143 8
53 145 4
53 146 6
53 147 6
53 148 1
53 150 5
53 152 10
53 154 6
53 155 7
53 158 9
53 159 2
53 160 4
53 161 7
53 163 1
53 164 7
53 165 6
53 166 6
53 167 2
53 169 2
53 171 4
53 172 2
53 174 5
53 177 10
53 179 6
53 180 6
53 183 3
53 185 6
53 186 8
53 187 10
53 188 10
53 189 1
53 192 2
53 194 8
53 195 8
53 197 1
53 199 10
53 200 3
53 201 2
53 202 4
53 204 7
53 206 6
53 207 1
53 208 10
53 209 9
53 210 8
53 211 3
53 212 4
53 214 4
53 215 10
53 217 7
53 218 5
53 219 8
53 220 4
53 221 8
53 223 9
53 224 1
53 227 2
53 228 8
53 229 9
53 231 2
53 232 6
53 234 1
53 235 9
53 236 2
53 237 3
53 238 10
53 239 3
53 240 1
53 241 8
53 242 1
53 243 9
53 244 4
53 245 2
53 247 2
53 248 4
53 249 3
53 250 9
53 251 8
53 252 8
53 254 10
53 255 2
53 257 3
53 258 1
53 259 5
53 260 8
53 261 10
53 262 7
53 263 4
53 264 7
53 265 6
53 267 8
53 268 6
53 269 9
53 271 1
53 272 3
53 274 8
53 275 4
53 278 9
53 279 5
53 280 2
53 281 6
53 282 9
53 283 4
53 284 1
53 285 3
53 286 2
53 287 5
53 288 9
53 289 8
53 291 5
53 292 5
53 293 8
53 294 5
53 295 7
53 296 9
53 298 10
53 299 7
53 300 9
54 55 10
54 57 8
54 58 9
54 59 6
54 60 8
54 61 4
54 62 2
54 63 8
54 67 2
54 68 10
54 69 5
54 70 6
54 71 7
54 72 1
54 73 7
54 74 7
54 75 2
54 77 7
54 79 2
54 80 7
54 81 2
54 82 1
54 83 5
54 84 8
54 85 10
54 86 6
54 88 2
54 91 5
54 92 5
54 93 6
54 94 10
54 99 2
54 101 2
54 102 4
54 103 10
54 104 3
54 105 1
54 106 3
54 108 3
54 111 6
54 112 8
54 113 9
54 114 10
54 115 10
54 117 3
54 118 3
54 119 3
54 120 2
54 121 8
54 122 10
54 123 8
54 124 4
54 126 9
54 127 2
54 128 9
54 129 2
54 131 4
54 132 1
54 133 2
54 134 10
54 136 9
54 137 7
54 139 7
54 140 6
54 144 4
54 146 1
54 147 4
54 149 9
54 150 6
54 151 6
54 153 8
54 155 4
54 156 4
54 158 1
54 159 3
54 160 3
54 161 4
54 162 8
54 164 7
54 165 1
54 167 5
54 168 8
54 169 1
54 170 6
54 171 5
54 174 10
54 175 4
54 177 10
54 178 6
54 180 8
54 181 9
54 182 10
54 183 5
54 184 6
54 186 6
54 187 3
54 188 8
54 189 8
54 190 6
54 192 2
54 193 10
54 195 2
54 197 8
54 199 6
54 201 7
54 202 3
54 203 6
54 204 3
54 206 10
54 209 4
54 211 3
54 212 9
54 213 5
54 215 10
54 216 9
54 217 10
54 218 1
54 220 2
54 221 6
54 224 10
54 225 4
54 228 7
54 229 8
54 230 10
54 231 4
54 232 7
54 233 2
54 234 9
54 238 10
54 243 10
54 245 1
54 246 1
54 247 3
54 248 7
54 250 10
54 251 6
54 252 6
54 253 8
54 257 7
54 258 7
54 259 5
54 260 3
54 262 9
54 263 5
54 265 7
54 266 4
54 267 4
54 268 6
54 269 5
54 270 5
54 271 4
54 272 8
54 274 4
54 275 9
54 276 9
54 277 4
54 278 1
54 279 8
54 280 8
54 281 4
54 282 8
54 283 4
54 284 4
54 286 3
54 287 4
54 288 2
54 291 7
54 293 7
54 298 4
54 300 3
55 56 5
55 58 10
55 59 1
55 61 10
55 63 6
55 64 2
55 66 10
55 68 4
55 70 5
55 71 4
55 72 5
55 73 9
55 74 3
55 75 5
55 76 6
55 77 9
55 78 2
55 79 9
55 81 10
55 82 5
55 83 6
55 86 9
55 87 2
55 88 4
55 89 7
55 90 2
55 91 6
55 92 4
55 93 10
55 94 10
55 98 1
55 100 4
55 102 2
55 103 5
55 104 1
55 105 4
55 106 1
55 108 2
55 109 2
55 110 7
55 111 1
55 112 8
55 114 8
55 115 3
55 118 6
55 119 9
55 120 8
55 121 7
55 124 9
55 127 4
55 128 9
55 129 9
55 131 7
55 132 3
55 133 1
55 134 5
55 135 4
55 136 2
55 137 10
55 138 8
55 139 9
55 141 9
55 144 9
55 145 3
55 146 1
55 147 5
55 148 8
55 149 6
55 150 6
55 151 9
55 155 1
55 157 4
55 158 3
55 159 7
55 161 4
55 163 7
55 164 3
55 165 3
55 166 3
55 168 5
55 170 7
55 171 8
55 173 3
55 174 3
55 175 9
55 176 5
55 177 1
55 178 5
55 179 5
55 180 4
55 182 7
55 183 2
55 185 3
55 186 6
55 187 1
55 191 6
55 193 2
55 195 5
55 197 2
55 198 6
55 199 4
55 200 9
55 201 8
55 202 9
55 203 1
55 206 4
55 207 2
55 209 5
55 211 7
55 214 4
55 215 3
55 216 2
55 217 9
55 218 2
55 219 5
55 220 7
55 221 1
55 222 1
55 223 10
55 224 1
55 227 7
55 228 9
55 229 9
55 231 8
55 233 3
55 234 10
55 236 8
55 238 5
55 240 3
55 241 2
55 242 8
55 243 8
55 244 9
55 245 6
55 246 1
55 247 6
55 249 9
55 250 8
55 251 1
55 252 10
55 253 3
55 255 5
55 256 8
55 258 4
55 259 3
55 260 3
55 263 9
55 264 3
55 268 7
55 269 1
55 271 8
55 273 8
55 274 4
55 275 7
55 276 5
55 278 7
55 279 1
55 280 4
55 282 10
55 283 3
55 285 10
55 288 3
55 289 9
55 291 4
55 292 7
55 293 6
55 294 3
55 295 4
55 296 6
55 297 10
55 298 2
55 299 4
55 300 6
56 57 1
56 58 9
56 59 2
56 61 7
56 64 8
56 65 8
56 66 5
56 67 5
56 68 9
56 69 6
56 70 10
56 72 10
56 75 6
56 77 1
56 80 1
56 83 7
56 84 7
56 85 3
56 86 1
56 87 3
56 88 1
56 89 10
56 90 2
56 91 9
56 92 2
56 93 4
56 95 6
56 97 7
56 98 10
56 99 5
56 100 5
56 101 9
56 104 1
56 105 10
56 107 2
56 108 9
56 109 7
56 110 5
56 112 3
56 113 6
56 114 6
56 116 2
56 117 3
56 118 4
56 119 8
56 120 3
56 122 3
56 123 7
56 124 7
56 126 1
56 128 8
56 129 6
56 132 4
56 133 4
56 134 5
56 135 5
56 136 4
56 137 4
56 139 10
56 140 4
56 141 4
56 142 2
56 143 8
56 145 4
56 147 5
56 150 10
56 151 3
56 152 1
56 154 1
56 156 8
56 157 2
56 159 3
56 160 4
56 161 7
56 163 10
56 164 3
56 165 7
56 166 7
56 167 4
56 168 5
56 169 2
56 171 4
56 172 3
56 173 9
56 174 4
56 176 8
56 177 9
56 179 2
56 180 2
56 182 8
56 183 1
56 184 3
56 185 1
56 186 3
56 187 6
56 188 4
56 189 2
56 191 6
56 193 9
56 194 9
56 195 3
56 197 10
56 198 7
56 199 3
56 200 8
56 201 2
56 202 7
56 209 6
56 210 7
56 212 6
56 214 3
56 216 8
56 217 7
56 219 8
56 221 2
56 222 5
56 224 1
56 226 8
56 227 6
56 228 6
56 229 2
56 230 3
56 231 4
56 232 7
56 234 8
56 235 10
56 237 4
56 238 2
56 239 10
56 240 10
56 242 8
56 243 10
56 244 2
56 245 9
56 246 5
56 248 6
56 250 8
56 251 6
56 252 9
56 254 9
56 255 5
56 256 4
56 257 2
56 258 8
56 260 1
56 264 7
56 265 2
56 267 1
56 268 7
56 269 3
56 270 1
56 271 5
56 272 9
56 273 2
56 275 10
56 276 1
56 277 9
56 278 2
56 280 2
56 284 6
56 285 4
56 286 8
56 288 9
56 289 5
56 291 5
56 292 8
56 295 6
56 296 3
56 297 6
56 298 1
56 299 8
57 59 4
57 60 3
57 61 2
57 63 8
57 64 2
57 65 1
57 67 5
57 68 6
57 69 4
57 71 7
57 73 9
57 75 5
57 76 1
57 77 10
57 78 10
57 79 2
57 81 5
57 82 8
57 83 1
57 84 4
57 85 1
57 86 4
57 87 1
57 93 5
57 94 5
57 95 6
57 97 5
57 98 8
57 99 1
57 100 6
57 102 6
57 103 9
57 105 5
57 106 6
57 107 9
57 108 7
57 109 1
57 111 4
57 112 4
57 113 6
57 114 2
57 117 5
57 119 1
57 120 5
57 121 1
57 123 1
57 124 3
57 126 4
57 127 8
57 128 1
57 129 6
57 130 1
57 132 10
57 134 6
57 135 9
57 136 6
57 138 7
57 139 3
57 140 10
57 141 6
57 142 6
57 144 3
57 145 2
57 147 1
57 148 6
57 150 7
57 151 1
57 152 2
57 155 4
57 157 5
57 159 8
57 161 6
57 162 1
57 163 10
57 165 8
57 166 5
57 168 6
57 169 4
57 171 9
57 172 8
57 173 10
57 174 9
57 175 4
57 176 4
57 179 3
57 180 8
57 182 6
57 184 5
57 186 10
57 187 7
57 189 9
57 190 9
57 193 1
57 194 9
57 195 9
57 196 6
57 198 9
57 199 6
57 200 6
57 203 8
57 205 4
57 206 4
57 208 2
57 209 9
57 210 10
57 212 8
57 213 8
57 214 8
57 215 7
57 216 9
57 217 2
57 218 6
57 219 9
57 220 6
57 221 7
57 222 3
57 223 6
57 224 6
57 225 5
57 226 7
57 228 2
57 234 7
57 235 9
57 237 2
57 240 5
57 241 9
57 243 3
57 244 2
57 247 5
57 249 10
57 250 10
57 252 9
57 253 6
57 254 6
57 256 5
57 257 9
57 258 5
57 259 10
57 261 6
57 262 8
57 263 4
57 266 10
57 268 8
57 270 2
57 271 7
57 272 8
57 273 2
57 274 3
57 275 7
57 276 8
57 277 9
57 279 2
57 280 5
57 281 7
57 282 4
57 283 9
57 284 4
57 285 2
57 287 4
57 290 9
57 292 5
57 293 3
57 294 1
57 295 9
57 296 9
57 298 9
57 299 10
58 60 6
58 61 8
58 62 5
58 63 7
58 64 3
58 65 3
58 66 8
58 67 9
58 69 7
58 70 3
58 71 1
58 72 7
58 73 10
58 74 3
58 75 9
58 77 6
58 78 4
58 79 1
58 80 2
58 81 3
58 82 9
58 83 10
58 84 6
58 85 6
58 86 9
58 87 8
58 89 6
58 91 3
58 92 8
58 94 3
58 95 5
58 97 1
58 98 7
58 99 9
58 100 10
58 101 8
58 104 10
58 105 8
58 106 2
58 109 7
58 110 1
58 111 1
58 112 9
58 116 5
58 117 8
58 118 10
58 120 10
58 123 7
58 124 2
58 125 5
58 126 1
58 127 7
58 128 9
58 132 3
58 133 6
58 134 9
58 135 8
58 136 2
58 137 5
58 139 1
58 140 3
58 141 8
58 142 9
58 144 6
58 145 3
58 146 1
58 147 2
58 148 5
58 149 9
58 150 10
58 151 7
58 152 10
58 153 6
58 154 2
58 155 5
58 156 7
58 157 5
58 158 1
58 159 9
58 160 3
58 161 1
58 162 8
58 164 4
58 165 8
58 166 5
58 168 2
58 169 4
58 170 3
58 171 10
58 172 6
58 173 5
58 175 4
58 177 1
58 178 6
58 180 8
58 183 3
58 184 6
58 185 8
58 186 2
58 188 6
58 189 9
58 190 1
58 191 7
58 192 4
58 193 7
58 194 10
58 196 8
58 197 7
58 198 9
58 199 8
58 201 6
58 203 6
58 204 3
58 205 9
58 206 7
58 208 7
58 210 1
58 211 9
58 213 5
58 214 1
58 215 3
58 217 9
58 218 9
58 219 6
58 221 6
58 222 3
58 223 2
58 224 8
58 225 7
58 226 5
58 227 2
58 228 1
58 229 7
58 233 2
58 234 5
58 236 3
58 237 1
58 238 1
58 239 4
58 243 1
58 244 10
58 245 6
58 246 2
58 248 3
58 252 2
58 253 1
58 254 4
58 255 8
58 257 7
58 260 1
58 261 1
58 262 7
58 263 9
58 265 8
58 266 10
58 267 10
58 270 10
58 273 2
58 275 1
58 276 10
58 277 3
58 278 4
58 281 2
58 282 2
58 285 1
58 290 2
58 292 2
58 293 6
58 294 8
58 295 2
58 296 9
58 298 7
58 299 6
59 60 8
59 62 2
59 63 9
59 64 6
59 65 9
59 66 3
59 67 4
59 68 9
59 69 6
59 71 6
59 73 4
59 74 9
59 78 8
59 79 3
59 80 5
59 81 3
59 82 8
59 83 4
59 84 5
59 85 8
59 86 8
59 87 4
59 88 6
59 89 5
59 90 10
59 91 4
59 93 7
59 94 10
59 95 6
59 97 9
59 98 7
59 99 2
59 102 10
59 105 1
59 107 8
59 108 3
59 109 8
59 110 10
59 111 9
59 112 6
59 113 10
59 114 9
59 116 1
59 117 3
59 118 6
59 119 10
59 120 8
59 121 7
59 123 4
59 124 5
59 126 7
59 127 4
59 128 10
59 130 3
59 131 7
59 132 4
59 133 5
59 134 7
59 135 4
59 136 3
59 137 5
59 139 1
59 140 5
59 141 7
59 144 9
59 146 9
59 147 6
59 148 3
59 149 6
59 151 2
59 152 7
59 156 1
59 158 2
59 159 4
59 160 8
59 161 4
59 162 6
59 163 9
59 165 10
59 166 3
59 167 4
59 168 2
59 169 6
59 170 8
59 172 10
59 173 2
59 175 6
59 177 1
59 178 3
59 180 9
59 181 1
59 182 9
59 183 10
59 184 1
59 185 10
59 187 9
59 188 6
59 189 6
59 190 5
59 191 6
59 192 3
59 193 2
59 194 7
59 195 6
59 196 1
59 198 1
59 199 3
59 200 8
59 201 9
59 202 3
59 204 6
59 206 5
59 207 4
59 208 4
59 209 3
59 210 5
59 211 10
59 215 5
59 216 2
59 218 8
59 219 2
59 220 4
59 221 7
59 222 8
59 223 6
59 224 2
59 226 2
59 227 7
59 228 5
59 231 3
59 232 7
59 233 9
59 234 1
59 235 7
59 236 10
59 237 6
59 238 6
59 240 9
59 241 1
59 242 1
59 244 9
59 246 3
59 247 7
59 248 3
59 249 6
59 250 10
59 251 6
59 252 6
59 253 4
59 255 4
59 256 10
59 257 3
59 262 8
59 263 7
59 264 2
59 265 10
59 266 8
59 267 4
59 268 1
59 269 7
59 270 6
59 272 9
59 273 10
59 274 9
59 275 5
59 278 2
59 279 6
59 280 5
59 281 3
59 282 1
59 283 5
59 285 5
59 286 10
59 287 2
59 288 1
59 290 5
59 291 8
59 292 5
59 293 2
59 297 7
59 298 3
59 299 7
59 300 2
60 61 10
60 63 8
60 64 4
60 65 6
60 66 7
60 68 8
60 71 5
60 72 1
60 73 5
60 74 2
60 75 1
60 76 9
60 77 8
60 78 4
60 80 7
60 82 7
60 83 6
60 85 9
60 86 7
60 87 1
60 89 6
60 90 2
60 91 7
60 92 5
60 94 4
60 96 9
60 97 5
60 98 2
60 102 5
60 103 4
60 105 2
60 106 3
60 107 5
60 108 2
60 110 1
60 111 3
60 112 6
60 114 6
60 115 3
60 116 7
60 117 9
60 118 2
60 119 3
60 120 2
60 121 3
60 123 5
60 126 3
60 127 6
60 128 4
60 129 2
60 131 7
60 132 6
60 134 8
60 138 1
60 142 9
60 143 3
60 144 2
60 145 2
60 146 10
60 147 5
60 148 10
60 149 4
60 150 4
60 152 6
60 154 5
60 155 9
60 156 3
60 157 5
60 158 7
60 159 6
60 160 8
60 162 10
60 163 4
60 165 5
60 166 9
60 167 8
60 169 5
60 170 6
60 171 9
60 172 8
60 174 6
60 175 7
60 176 10
60 177 1
60 178 7
60 179 5
60 180 2
60 181 3
60 183 10
60 184 8
60 186 5
60 187 7
60 188 5
60 189 3
60 190 4
60 193 1
60 195 6
60 196 7
60 197 2
60 198 8
60 203 6
60 204 4
60 205 7
60 207 1
60 208 6
60 209 5
60 210 6
60 211 2
60 212 9
60 213 9
60 214 10
60 215 4
60 216 9
60 219 3
60 220 9
60 221 2
60 222 4
60 223 2
60 224 9
60 225 3
60 226 1
60 231 9
60 232 9
60 234 5
60 235 10
60 236 9
60 237 6
60 238 10
60 239 8
60 240 10
60 241 1
60 242 5
60 244 9
60 246 8
60 247 8
60 248 5
60 249 2
60 250 6
60 251 6
60 253 2
60 254 6
60 255 8
60 257 7
60 258 3
60 259 4
60 261 1
60 262 9
60 264 6
60 265 10
60 266 4
60 267 2
60 268 4
60 270 1
60 271 4
60 272 10
60 273 7
60 275 5
60 276 8
60 277 8
60 280 1
60 283 3
60 285 9
60 286 7
60 290 3
60 292 2
60 294 8
60 295 6
60 296 5
60 297 10
60 299 8
61 62 2
61 63 1
61 64 9
61 65 9
61 66 2
61 68 7
61 69 8
61 70 3
61 71 2
61 72 8
61 73 10
61 74 5
61 75 10
61 76 1
61 78 10
61 79 7
61 80 8
61 81 7
61 83 6
61 84 9
61 85 1
61 88 2
61 93 10
61 94 10
61 95 2
61 96 5
61 97 1
61 98 3
61 100 3
61 101 9
61 102 2
61 103 9
61 104 2
61 105 6
61 106 10
61 107 5
61 108 2
61 110 5
61 112 3
61 113 3
61 114 10
61 115 9
61 116 8
61 119 3
61 121 6
61 123 8
61 124 8
61 125 9
61 126 6
61 127 1
61 128 10
61 129 9
61 130 5
61 131 10
61 132 10
61 133 4
61 134 5
61 135 8
61 137 1
61 138 7
61 140 7
61 141 3
61 142 6
61 144 1
61 145 5
61 147 1
61 148 7
61 149 8
61 150 5
61 151 1
61 152 5
61 155 2
61 158 10
61 159 7
61 162 6
61 163 10
61 164 10
61 165 2
61 166 10
61 168 4
61 169 7
61 170 5
61 171 8
61 172 5
61 174 5
61 175 9
61 176 6
61 177 6
61 178 7
61 179 6
61 180 2
61 183 10
61 184 8
61 186 7
61 187 8
61 188 5
61 189 7
61 190 1
61 191 2
61 192 5
61 193 10
61 196 6
61 197 8
61 198 8
61 199 10
61 200 2
61 202 8
61 204 6
61 205 6
61 206 9
61 207 5
61 208 1
61 211 6
61 212 10
61 213 3
61 214 8
61 215 7
61 217 4
61 218 5
61 220 4
61 221 3
61 222 8
61 223 7
61 224 1
61 225 2
61 226 4
61 227 10
61 228 8
61 229 10
61 231 3
61 232 7
61 233 7
61 234 3
61 236 9
61 237 6
61 238 5
61 239 4
61 240 9
61 241 2
61 242 10
61 243 9
61 244 4
61 245 2
61 246 3
61 250 2
61 251 5
61 252 5
61 255 1
61 256 3
61 258 3
61 260 4
61 261 1
61 262 7
61 263 3
61 264 6
61 265 8
61 268 8
61 269 9
61 270 2
61 276 6
61 277 10
61 278 10
61 279 3
61 280 5
61 283 1
61 284 7
61 285 6
61 287 1
61 288 7
61 289 3
61 290 8
61 291 9
61 294 1
61 298 4
61 299 3
61 300 4
62 63 1
62 65 6
62 66 10
62 67 9
62 69 3
62 71 10
62 72 5
62 73 9
62 74 4
62 75 6
62 76 3
62 78 7
62 79 6
62 80 6
62 81 7
62 83 1
62 85 9
62 87 2
62 88 8
62 90 9
62 92 6
62 93 7
62 94 9
62 95 8
62 96 7
62 98 5
62 99 1
62 100 8
62 104 4
62 105 10
62 107 5
62 108 1
62 109 4
62 110 5
62 111 3
62 112 4
62 114 8
62 115 4
62 116 2
62 118 10
62 119 4
62 120 9
62 121 6
62 122 7
62 123 3
62 124 8
62 127 4
62 128 4
62 129 2
62 131 1
62 133 1
62 134 6
62 135 6
62 138 4
62 139 5
62 140 4
62 142 8
62 145 6
62 146 6
62 148 7
62 149 8
62 151 3
62 153 9
62 155 7
62 156 5
62 158 5
62 159 5
62 160 9
62 162 2
62 163 5
62 164 5
62 165 6
62 166 7
62 168 2
62 169 1
62 170 5
62 171 1
62 175 5
62 176 7
62 177 1
62 178 4
62 179 9
62 180 5
62 182 2
62 183 4
62 185 7
62 186 3
62 187 9
62 189 10
62 190 1
62 193 8
62 194 7
62 195 2
62 197 8
62 199 5
62 200 10
62 202 4
62 203 4
62 204 7
62 205 6
62 206 4
62 208 5
62 211 2
62 213 7
62 215 4
62 217 7
62 218 8
62 219 8
62 220 4
62 221 4
62 224 5
62 225 5
62 227 2
62 228 6
62 229 2
62 230 3
62 231 7
62 232 8
62 233 3
62 235 10
62 236 2
62 237 7
62 238 2
62 239 1
62 240 3
62 241 7
62 242 10
62 244 4
62 245 5
62 246 4
62 247 10
62 248 5
62 249 4
62 251 6
62 254 3
62 256 6
62 259 7
62 260 8
62 261 8
62 262 4
62 264 5
62 265 10
62 266 2
62 267 9
62 269 3
62 270 4
62 272 8
62 274 1
62 275 8
62 276 4
62 277 5
62 278 10
62 279 2
62 280 6
62 282 4
62 284 2
62 285 5
62 287 10
62 289 3
62 290 9
62 291 9
62 292 6
62 294 9
62 297 10
63 64 2
63 65 6
63 68 5
63 69 10
63 70 2
63 71 1
63 72 7
63 73 5
63 76 10
63 80 10
63 81 6
63 83 2
63 84 2
63 85 10
63 86 5
63 87 2
63 88 6
63 90 5
63 91 2
63 92 4
63 93 2
63 96 8
63 98 2
63 99 9
63 100 9
63 103 4
63 105 6
63 106 8
63 107 10
63 108 2
63 109 3
63 111 10
63 112 10
63 114 7
63 116 5
63 117 4
63 119 3
63 121 1
63 123 10
63 126 8
63 127 7
63 129 6
63 131 5
63 132 2
63 133 8
63 134 5
63 135 1
63 136 3
63 137 4
63 138 7
63 139 10
63 142 5
63 143 8
63 144 1
63 145 10
63 146 1
63 147 5
63 150 7
63 151 10
63 152 4
63 153 4
63 154 7
63 155 5
63 156 7
63 157 10
63 158 10
63 159 4
63 161 3
63 162 1
63 164 7
63 165 4
63 166 1
63 169 9
63 170 7
63 171 9
63 172 4
63 173 4
63 175 6
63 176 10
63 177 5
63 178 5
63 179 2
63 180 4
63 181 1
63 182 7
63 183 2
63 184 9
63 186 2
63 187 5
63 188 4
63 189 7
63 190 6
63 191 9
63 193 5
63 195 9
63 196 6
63 197 10
63 199 3
63 201 9
63 202 5
63 203 10
63 205 8
63 206 7
63 208 1
63 209 1
63 210 9
63 211 8
63 212 5
63 213 10
63 214 3
63 215 8
63 216 6
63 217 9
63 218 10
63 219 1
63 221 3
63 222 9
63 223 1
63 225 3
63 226 1
63 228 6
63 229 5
63 230 3
63 232 2
63 234 10
63 236 8
63 239 9
63 241 5
63 242 9
63 243 1
63 244 9
63 247 9
63 248 9
63 250 9
63 253 6
63 254 5
63 255 10
63 257 9
63 258 4
63 259 9
63 260 2
63 261 9
63 264 7
63 265 8
63 266 9
63 269 3
63 273 3
63 274 5
63 275 10
63 276 4
63 277 7
63 279 10
63 280 10
63 282 6
63 283 9
63 284 10
63 285 8
63 287 4
63 289 9
63 290 10
63 291 10
63 292 9
63 293 2
63 294 2
63 295 10
63 296 1
63 297 1
63 298 5
63 300 3
64 65 1
64 68 1
64 69 8
64 70 4
64 73 4
64 74 9
64 75 1
64 76 9
64 78 6
64 82 10
64 83 9
64 84 7
64 86 8
64 88 10
64 89 2
64 90 4
64 91 7
64 93 4
64 94 6
64 95 9
64 96 10
64 97 8
64 98 4
64 102 1
64 103 5
64 105 8
64 106 4
64 107 6
64 108 10
64 110 9
64 111 8
64 112 1
64 113 7
64 115 7
64 117 8
64 118 4
64 119 9
64 121 9
64 123 1
64 124 5
64 125 3
64 126 2
64 127 7
64 128 7
64 129 3
64 130 9
64 132 9
64 133 4
64 134 8
64 135 4
64 136 6
64 137 3
64 138 4
64 139 8
64 140 1
64 141 8
64 142 10
64 144 5
64 147 9
64 148 4
64 149 9
64 150 8
64 151 6
64 154 8
64 155 6
64 156 6
64 157 7
64 158 1
64 159 2
64 160 8
64 162 10
64 165 10
64 166 6
64 168 6
64 170 4
64 171 1
64 173 4
64 174 6
64 175 9
64 176 9
64 177 2
64 178 7
64 180 6
64 182 5
64 183 8
64 184 10
64 185 1
64 186 5
64 187 1
64 188 1
64 190 2
64 191 10
64 193 2
64 195 10
64 196 7
64 198 1
64 200 5
64 202 8
64 205 5
64 206 3
64 207 6
64 209 2
64 211 3
64 213 4
64 214 10
64 215 2
64 217 10
64 220 3
64 221 10
64 223 2
64 224 2
64 225 8
64 226 1
64 229 2
64 231 6
64 232 3
64 233 10
64 234 7
64 235 4
64 236 7
64 238 8
64 239 5
64 241 9
64 244 2
64 245 3
64 246 10
64 247 1
64 248 1
64 249 8
64 250 6
64 251 3
64 252 10
64 254 10
64 255 3
64 256 4
64 259 5
64 260 10
64 261 4
64 263 5
64 264 2
64 265 8
64 267 2
64 269 2
64 270 4
64 271 8
64 272 3
64 273 9
64 275 7
64 276 10
64 278 4
64 280 1
64 281 2
64 282 7
64 283 3
64 287 9
64 288 2
64 290 10
64 291 9
64 293 3
64 295 5
64 297 3
64 299 7
65 66 6
65 70 2
65 73 3
65 75 3
65 76 7
65 77 10
65 78 6
65 79 9
65 80 1
65 81 5
65 82 2
65 84 9
65 85 8
65 87 3
65 88 6
65 91 1
65 92 6
65 93 1
65 94 8
65 95 9
65 96 3
65 97 7
65 98 3
65 99 9
65 100 6
65 103 6
65 104 2
65 107 10
65 108 6
65 109 3
65 110 7
65 112 3
65 114 7
65 116 3
65 117 10
65 118 8
65 119 7
65 123 3
65 125 1
65 127 2
65 128 5
65 131 4
65 132 8
65 133 7
65 134 1
65 135 5
65 136 8
65 137 2
65 140 6
65 141 2
65 144 5
65 146 1
65 147 10
65 148 4
65 149 6
65 151 10
65 152 1
65 153 1
65 154 1
65 155 3
65 156 10
65 159 1
65 160 1
65 162 9
65 163 8
65 164 4
65 165 4
65 166 9
65 167 9
65 168 6
65 169 9
65 171 7
65 172 7
65 174 2
65 177 9
65 178 7
65 181 5
65 183 6
65 184 7
65 185 6
65 186 4
65 188 2
65 189 9
65 190 10
65 191 10
65 192 8
65 193 2
65 194 5
65 195 2
65 196 9
65 198 6
65 200 1
65 201 1
65 203 3
65 204 10
65 205 10
65 206 8
65 209 5
65 210 7
65 211 4
65 215 9
65 216 9
65 217 5
65 218 2
65 219 9
65 220 5
65 221 10
65 223 10
65 224 10
65 225 4
65 226 9
65 227 3
65 228 8
65 229 8
65 230 5
65 232 3
65 234 9
65 236 2
65 237 7
65 238 4
65 240 9
65 241 7
65 244 2
65 245 7
65 246 1
65 251 3
65 252 10
65 254 3
65 255 10
65 256 3
65 258 5
65 259 7
65 260 3
65 262 10
65 264 6
65 265 3
65 266 5
65 268 2
65 269 4
65 274 8
65 276 9
65 277 9
65 278 9
65 279 2
65 280 6
65 281 10
65 283 9
65 285 8
65 286 4
65 287 1
65 288 5
65 289 9
65 290 6
65 292 4
65 293 8
65 294 3
65 295 9
65 296 4
65 297 4
65 299 7
65 300 5
66 67 2
66 68 3
66 69 9
66 70 5
66 73 7
66 74 1
66 75 7
66 77 2
66 78 10
66 79 7
66 81 3
66 83 1
66 84 10
66 85 7
66 86 8
66 87 10
66 89 7
66 90 10
66 91 9
66 93 5
66 94 2
66 96 6
66 97 2
66 98 7
66 100 8
66 101 3
66 102 7
66 105 5
66 107 2
66 108 10
66 109 6
66 110 8
66 111 5
66 112 8
66 113 3
66 115 7
66 116 7
66 118 10
66 119 5
66 120 2
66 122 8
66 123 8
66 125 1
66 126 6
66 128 5
66 129 1
66 130 8
66 131 7
66 132 10
66 133 10
66 135 10
66 136 8
66 137 8
66 138 4
66 140 4
66 143 10
66 144 8
66 146 1
66 147 6
66 148 2
66 149 10
66 150 6
66 151 2
66 152 8
66 153 5
66 155 6
66 156 7
66 157 7
66 158 4
66 159 7
66 161 2
66 163 2
66 164 4
66 165 9
66 166 8
66 169 3
66 170 4
66 171 3
66 173 8
66 175 5
66 176 2
66 178 6
66 179 2
66 180 8
66 183 6
66 185 4
66 186 9
66 187 4
66 188 10
66 190 7
66 194 2
66 195 8
66 197 6
66 198 1
66 199 6
66 200 4
66 201 7
66 202 4
66 204 5
66 205 3
66 206 6
66 207 4
66 208 10
66 210 6
66 211 5
66 212 2
66 214 10
66 215 4
66 216 4
66 217 7
66 218 2
66 220 10
66 221 1
66 224 9
66 226 7
66 228 6
66 229 4
66 230 4
66 231 3
66 232 4
66 233 5
66 234 8
66 236 1
66 237 2
66 238 4
66 239 6
66 240 6
66 241 1
66 242 9
66 243 4
66 245 3
66 246 1
66 247 2
66 249 6
66 250 9
66 253 7
66 254 10
66 256 10
66 257 6
66 258 9
66 259 3
66 260 9
66 261 2
66 262 10
66 264 6
66 265 3
66 266 6
66 267 2
66 269 9
66 271 2
66 273 9
66 275 10
66 276 2
66 277 8
66 278 6
66 279 9
66 280 8
66 281 10
66 282 2
66 283 3
66 284 8
66 285 10
66 286 8
66 287 1
66 288 1
66 290 3
66 292 6
66 293 7
66 294 3
66 295 1
66 297 7
66 298 6
67 68 5
67 70 5
67 71 2
67 72 1
67 73 1
67 74 1
67 76 2
67 77 7
67 78 1
67 80 1
67 81 5
67 84 5
67 86 9
67 87 4
67 88 8
67 89 1
67 90 2
67 91 2
67 92 1
67 93 5
67 95 2
67 97 2
67 99 9
67 100 2
67 101 5
67 102 7
67 103 9
67 105 2
67 107 10
67 108 10
67 110 7
67 111 5
67 112 10
67 113 2
67 114 6
67 115 9
67 116 2
67 117 9
67 118 2
67 119 7
67 120 4
67 122 7
67 123 1
67 124 8
67 125 4
67 128 10
67 129 2
67 130 6
67 131 2
67 133 7
67 134 10
67 135 10
67 136 6
67 137 8
67 138 5
67 139 7
67 140 1
67 141 6
67 144 8
67 145 3
67 146 5
67 147 5
67 148 3
67 149 10
67 150 9
67 152 5
67 153 10
67 154 1
67 155 5
67 156 6
67 159 9
67 162 9
67 163 6
67 164 1
67 166 9
67 167 9
67 168 10
67 169 6
67 170 7
67 171 5
67 173 10
67 175 2
67 177 10
67 178 5
67 179 10
67 183 5
67 184 4
67 185 4
67 187 10
67 188 10
67 189 1
67 190 1
67 191 3
67 192 9
67 193 4
67 197 7
67 198 3
67 199 8
67 200 2
67 201 5
67 202 5
67 203 10
67 204 7
67 205 4
67 208 6
67 209 10
67 210 8
67 211 1
67 213 6
67 214 10
67 215 1
67 219 9
67 220 7
67 222 9
67 223 6
67 224 8
67 225 10
67 226 1
67 227 7
67 229 8
67 230 10
67 231 1
67 235 3
67 237 10
67 241 9
67 242 10
67 244 4
67 245 5
67 246 4
67 249 5
67 250 9
67 251 5
67 252 6
67 253 9
67 254 2
67 255 3
67 256 1
67 257 5
67 258 5
67 259 2
67 260 10
67 261 5
67 262 8
67 263 3
67 265 4
67 266 5
67 267 3
67 268 5
67 269 2
67 270 1
67 275 2
67 277 5
67 278 7
67 279 7
67 281 4
67 283 5
67 284 8
67 285 9
67 286 9
67 287 3
67 288 4
67 289 2
67 290 4
67 291 1
67 292 7
67 293 9
67 295 7
67 296 7
67 297 9
67 300 10
68 69 2
68 70 1
68 71 4
68 72 3
68 73 10
68 75 10
68 76 3
68 77 3
68 78 8
68 79 9
68 80 3
68 81 4
68 82 5
68 83 9
68 85 3
68 87 2
68 88 10
68 89 10
68 90 6
68 91 7
68 92 5
68 93 6
68 95 6
68 98 4
68 99 1
68 100 4
68 101 9
68 103 9
68 104 2
68 105 9
68 106 1
68 108 3
68 109 8
68 112 8
68 113 9
68 114 2
68 115 4
68 117 5
68 118 9
68 119 8
68 120 2
68 121 7
68 122 1
68 123 3
68 124 8
68 125 2
68 126 4
68 127 5
68 128 8
68 130 10
68 131 4
68 132 8
68 134 8
68 136 9
68 138 1
68 139 5
68 140 3
68 141 6
68 142 1
68 146 1
68 147 9
68 150 4
68 151 6
68 152 6
68 153 1
68 154 3
68 155 3
68 157 2
68 158 8
68 159 7
68 160 1
68 161 4
68 162 6
68 164 10
68 165 5
68 166 6
68 168 5
68 169 9
68 170 7
68 171 3
68 173 8
68 174 4
68 175 10
68 176 4
68 177 4
68 180 2
68 181 3
68 182 10
68 184 10
68 185 5
68 186 3
68 187 10
68 188 3
68 189 6
68 191 6
68 192 3
68 193 5
68 194 8
68 196 3
68 197 6
68 198 3
68 199 5
68 200 6
68 203 6
68 204 2
68 206 10
68 209 8
68 211 9
68 213 6
68 214 9
68 215 7
68 216 4
68 218 5
68 219 1
68 220 2
68 221 8
68 223 6
68 224 7
68 225 8
68 226 9
68 227 9
68 228 5
68 229 9
68 230 10
68 231 2
68 232 3
68 233 5
68 234 3
68 236 9
68 238 3
68 239 10
68 241 10
68 242 3
68 243 3
68 244 10
68 245 4
68 248 7
68 249 2
68 251 9
68 254 7
68 255 7
68 256 2
68 257 10
68 258 2
68 260 10
68 261 4
68 263 4
68 264 3
68 265 8
68 267 3
68 268 2
68 270 1
68 272 6
68 273 8
68 274 4
68 276 5
68 277 6
68 278 6
68 279 2
68 280 9
68 281 4
68 284 7
68 285 2
68 286 9
68 287 1
68 289 2
68 290 7
68 293 4
68 294 7
68 296 4
68 298 3
68 299 9
69 70 10
69 72 1
69 74 2
69 76 10
69 77 4
69 78 2
69 79 5
69 81 4
69 82 3
69 83 1
69 84 8
69 85 3
69 86 4
69 87 10
69 88 9
69 89 1
69 90 9
69 92 8
69 94 9
69 96 3
69 97 4
69 99 6
69 100 5
69 101 9
69 103 8
69 105 7
69 106 9
69 108 3
69 109 10
69 111 6
69 113 7
69 115 6
69 116 1
69 117 4
69 118 8
69 121 3
69 122 6
69 123 9
69 124 10
69 125 6
69 126 5
69 127 5
69 129 3
69 131 3
69 132 7
69 135 4
69 136 2
69 138 8
69 139 5
69 144 5
69 147 5
69 148 3
69 149 7
69 152 4
69 153 5
69 154 8
69 156 10
69 158 9
69 159 2
69 160 8
69 161 1
69 162 9
69 164 9
69 165 3
69 166 10
69 167 8
69 168 5
69 172 4
69 173 6
69 174 5
69 176 10
69 177 1
69 180 8
69 182 3
69 183 5
69 185 9
69 186 3
69 187 10
69 188 2
69 192 6
69 194 4
69 195 1
69 196 6
69 197 3
69 198 3
69 200 1
69 201 3
69 202 9
69 203 8
69 204 6
69 205 6
69 208 4
69 209 4
69 210 9
69 212 10
69 214 8
69 215 5
69 216 7
69 218 2
69 219 2
69 222 8
69 223 1
69 224 9
69 226 2
69 228 1
69 229 7
69 230 8
69 234 3
69 235 9
69 236 7
69 238 6
69 239 10
69 240 5
69 241 8
69 242 5
69 247 6
69 249 7
69 251 1
69 253 10
69 254 10
69 255 9
69 256 2
69 257 1
69 258 3
69 259 4
69 261 2
69 263 5
69 267 1
69 268 5
69 270 3
69 271 6
69 272 3
69 273 10
69 274 5
69 275 8
69 276 10
69 277 4
69 279 4
69 280 6
69 281 5
69 284 10
69 285 2
69 286 8
69 287 4
69 289 4
69 290 1
69 291 2
69 292 4
69 293 2
69 294 10
69 295 3
69 296 7
69 297 3
69 298 7
69 299 5
69 300 7
70 72 2
70 73 10
70 74 9
70 75 4
70 76 8
70 77 6
70 79 8
70 80 7
70 81 4
70 82 2
70 83 7
70 84 5
70 87 6
70 88 1
70 89 2
70 90 4
70 91 7
70 92 5
70 94 3
70 96 8
70 98 3
70 100 3
70 101 3
70 102 10
70 103 1
70 105 5
70 106 6
70 108 7
70 109 1
70 110 10
70 112 2
70 113 7
70 114 8
70 115 5
70 116 8
70 117 6
70 118 9
70 119 4
70 120 1
70 121 8
70 122 7
70 123 2
70 124 9
70 125 10
70 126 7
70 127 2
70 129 2
70 131 3
70 132 7
70 133 9
70 136 3
70 137 9
70 138 8
70 139 3
70 141 1
70 143 4
70 145 6
70 147 10
70 148 8
70 149 3
70 155 9
70 156 2
70 158 4
70 161 7
70 163 7
70 164 4
70 165 5
70 166 7
70 167 4
70 171 10
70 173 2
70 174 3
70 175 5
70 176 9
70 178 7
70 179 1
70 180 7
70 181 1
70 182 8
70 184 9
70 185 8
70 186 6
70 187 4
70 188 8
70 189 8
70 190 10
70 191 4
70 192 5
70 193 1
70 194 8
70 195 4
70 196 3
70 197 5
70 200 3
70 201 9
70 202 6
70 204 1
70 205 5
70 206 7
70 208 2
70 209 1
70 210 8
70 211 2
70 212 5
70 213 5
70 214 4
70 215 8
70 216 7
70 218 3
70 219 1
70 220 10
70 221 7
70 223 8
70 224 5
70 225 9
70 226 7
70 227 5
70 228 6
70 230 3
70 231 2
70 235 7
70 236 6
70 237 6
70 238 4
70 239 3
70 240 9
70 241 7
70 242 8
70 246 10
70 247 7
70 248 8
70 249 3
70 250 6
70 251 4
70 252 9
70 253 9
70 255 9
70 256 9
70 257 8
70 258 2
70 259 4
70 261 10
70 262 5
70 263 5
70 264 10
70 266 5
70 267 2
70 268 2
70 269 6
70 270 7
70 271 3
70 273 4
70 274 3
70 275 6
70 276 2
70 277 8
70 279 2
70 280 1
70 282 2
70 284 10
70 286 3
70 287 5
70 288 9
70 289 7
70 292 6
70 295 10
70 296 6
70 300 7
71 72 9
71 75 10
71 77 3
71 79 4
71 82 9
71 83 1
71 85 8
71 86 3
71 87 3
71 88 4
71 89 4
71 90 8
71 91 2
71 92 7
71 93 3
71 94 3
71 95 4
71 96 5
71 98 8
71 100 2
71 101 3
71 102 2
71 104 5
71 105 8
71 108 3
71 109 2
71 112 4
71 113 8
71 114 5
71 115 9
71 117 5
71 119 1
71 120 7
71 121 8
71 122 6
71 125 2
71 127 3
71 128 5
71 132 7
71 133 9
71 134 3
71 136 10
71 137 6
71 138 8
71 139 2
71 140 9
71 143 9
71 144 10
71 145 3
71 146 7
71 147 3
71 149 3
71 151 6
71 152 1
71 153 2
71 154 9
71 155 2
71 156 7
71 157 1
71 159 10
71 160 1
71 161 8
71 163 7
71 164 8
71 165 5
71 166 10
71 167 5
71 169 1
71 170 2
71 171 1
71 174 10
71 175 10
71 178 2
71 179 7
71 180 8
71 181 10
71 183 3
71 185 8
71 186 4
71 187 7
71 188 4
71 191 5
71 192 5
71 193 3
71 194 7
71 197 7
71 198 6
71 199 7
71 200 7
71 202 5
71 203 2
71 204 4
71 205 1
71 206 3
71 207 7
71 208 6
71 211 1
71 213 1
71 214 4
71 215 1
71 216 3
71 217 7
71 220 7
71 224 5
71 226 6
71 227 5
71 228 8
71 229 3
71 233 7
71 234 2
71 235 2
71 236 3
71 239 5
71 240 5
71 241 8
71 242 2
71 244 6
71 245 1
71 247 6
71 248 3
71 249 2
71 250 2
71 251 1
71 252 3
71 253 5
71 254 3
71 255 3
71 256 2
71 257 5
71 259 2
71 260 7
71 261 4
71 262 5
71 264 9
71 265 8
71 266 8
71 267 2
71 268 3
71 269 5
71 270 6
71 271 4
71 272 10
71 273 10
71 274 1
71 275 3
71 276 7
71 278 6
71 279 2
71 281 3
71 283 5
71 284 10
71 285 2
71 286 2
71 288 3
71 289 3
71 290 6
71 291 4
71 294 9
71 295 10
71 296 10
71 298 8
71 299 4
71 300 10
72 73 3
72 76 6
72 77 9
72 78 8
72 80 10
72 81 10
72 82 1
72 84 9
72 85 6
72 88 10
72 89 1
72 91 2
72 92 10
72 93 8
72 94 1
72 95 4
72 97 10
72 98 1
72 99 10
72 100 7
72 101 2
72 104 3
72 107 2
72 108 10
72 110 1
72 111 7
72 112 7
72 113 2
72 114 3
72 116 3
72 117 9
72 119 9
72 120 4
72 122 3
72 123 4
72 124 9
72 125 7
72 126 3
72 127 2
72 128 10
72 129 10
72 132 7
72 133 8
72 134 5
72 136 7
72 137 7
72 138 7
72 139 1
72 141 7
72 142 5
72 143 2
72 144 8
72 145 3
72 146 9
72 148 8
72 149 3
72 150 7
72 151 5
72 152 9
72 154 7
72 156 7
72 157 4
72 159 3
72 160 10
72 161 2
72 162 9
72 163 5
72 164 5
72 165 5
72 167 6
72 168 7
72 170 1
72 172 3
72 174 7
72 175 5
72 177 1
72 179 4
72 180 6
72 181 1
72 182 8
72 183 7
72 184 9
72 185 9
72 186 9
72 189 10
72 191 6
72 192 2
72 193 8
72 195 9
72 196 2
72 198 6
72 199 1
72 201 9
72 202 7
72 203 9
72 204 7
72 205 6
72 206 7
72 207 5
72 208 2
72 209 2
72 210 4
72 211 10
72 212 5
72 213 7
72 214 6
72 215 4
72 216 2
72 218 1
72 219 3
72 220 2
72 222 7
72 223 10
72 224 10
72 225 1
72 226 1
72 227 3
72 230 7
72 231 2
72 232 9
72 234 10
72 235 1
72 236 10
72 237 7
72 238 9
72 239 1
72 240 2
72 242 5
72 243 10
72 244 1
72 245 9
72 246 4
72 247 7
72 248 8
72 250 7
72 252 9
72 254 5
72 255 2
72 256 6
72 258 10
72 259 9
72 262 10
72 265 1
72 266 2
72 267 6
72 268 3
72 269 3
72 270 3
72 271 7
72 272 3
72 274 8
72 275 5
72 276 2
72 277 8
72 278 8
72 279 8
72 280 5
72 281 3
72 284 9
72 286 10
72 287 10
72 289 8
72 290 7
72 291 10
72 293 3
72 295 7
72 296 7
72 298 4
72 299 3
73 74 7
73 75 7
73 77 3
73 78 3
73 79 2
73 81 4
73 82 4
73 84 7
73 85 5
73 86 9
73 87 9
73 88 5
73 90 9
73 92 7
73 94 6
73 96 8
73 97 6
73 98 4
73 99 9
73 104 7
73 105 5
73 107 3
73 108 10
73 109 8
73 111 10
73 113 5
73 114 5
73 115 1
73 116 3
73 117 1
73 119 7
73 120 5
73 123 1
73 124 5
73 126 7
73 128 7
73 129 6
73 130 3
73 131 2
73 133 9
73 135 2
73 136 7
73 137 4
73 138 6
73 139 8
73 140 9
73 141 5
73 142 8
73 143 7
73 145 5
73 146 10
73 147 6
73 148 6
73 149 8
73 150 6
73 151 2
73 152 9
73 153 8
73 154 6
73 155 2
73 156 9
73 157 6
73 158 7
73 159 1
73 160 8
73 161 3
73 163 7
73 164 6
73 165 8
73 166 8
73 169 2
73 170 8
73 171 1
73 172 5
73 173 6
73 174 6
73 175 1
73 177 9
73 178 1
73 180 9
73 181 2
73 182 10
73 184 5
73 185 9
73 186 2
73 187 3
73 188 3
73 189 7
73 190 1
73 191 5
73 192 4
73 193 6
73 194 3
73 195 2
73 196 10
73 199 4
73 200 9
73 201 7
73 203 6
73 204 2
73 205 8
73 208 7
73 209 1
73 210 1
73 211 5
73 212 3
73 213 6
73 215 3
73 216 5
73 222 6
73 226 10
73 227 3
73 228 3
73 229 5
73 232 1
73 233 1
73 235 5
73 237 2
73 238 2
73 239 10
73 240 9
73 242 6
73 243 6
73 244 1
73 245 10
73 246 2
73 247 4
73 251 8
73 252 6
73 253 4
73 254 5
73 255 6
73 256 9
73 257 3
73 259 4
73 261 4
73 262 2
73 263 1
73 264 7
73 265 3
73 266 7
73 267 8
73 271 2
73 272 1
73 273 8
73 274 9
73 275 9
73 276 10
73 277 1
73 278 2
73 279 5
73 280 10
73 281 7
73 282 5
73 284 9
73 285 2
73 286 6
73 287 2
73 293 9
73 294 7
73 296 10
73 297 1
73 299 9
73 300 7
74 75 3
74 77 9
74 78 5
74 79 5
74 80 2
74 81 10
74 82 4
74 83 6
74 84 4
74 85 10
74 86 9
74 87 10
74 89 9
74 90 2
74 91 6
74 92 4
74 93 9
74 94 6
74 95 9
74 96 6
74 97 9
74 98 3
74 99 10
74 100 3
74 103 4
74 104 5
74 105 8
74 106 1
74 107 10
74 108 5
74 111 6
74 112 9
74 113 5
74 114 4
74 115 8
74 116 5
74 117 7
74 118 8
74 120 1
74 121 4
74 122 7
74 124 3
74 125 3
74 127 4
74 128 8
74 130 9
74 131 8
74 134 8
74 136 2
74 137 5
74 138 5
74 140 6
74 141 2
74 142 2
74 143 1
74 145 8
74 146 5
74 148 7
74 150 6
74 152 7
74 153 5
74 154 3
74 155 10
74 158 4
74 159 9
74 160 8
74 161 8
74 162 1
74 163 2
74 164 2
74 165 2
74 166 6
74 167 9
74 168 9
74 169 4
74 170 3
74 171 7
74 172 1
74 174 2
74 175 1
74 177 4
74 178 8
74 179 2
74 180 5
74 181 9
74 186 3
74 187 2
74 191 9
74 193 4
74 194 9
74 195 8
74 198 7
74 199 6
74 200 2
74 201 8
74 203 7
74 204 5
74 205 10
74 208 8
74 210 4
74 212 2
74 213 8
74 214 2
74 216 2
74 217 3
74 218 2
74 219 9
74 220 1
74 222 6
74 226 8
74 228 4
74 229 4
74 230 4
74 232 4
74 233 3
74 234 3
74 236 6
74 238 9
74 239 6
74 240 4
74 241 8
74 243 3
74 244 8
74 246 3
74 249 8
74 251 3
74 253 2
74 254 3
74 256 5
74 257 7
74 258 3
74 259 6
74 260 7
74 261 2
74 262 9
74 264 9
74 266 9
74 269 4
74 270 8
74 271 10
74 272 1
74 273 6
74 275 10
74 276 2
74 277 9
74 279 1
74 280 4
74 281 2
74 282 7
74 283 2
74 284 1
74 285 10
74 287 1
74 289 5
74 290 1
74 291 8
74 294 8
74 295 5
74 296 3
74 297 5
74 298 7
74 299 4
74 300 2
75 78 10
75 79 2
75 80 3
75 81 3
75 82 6
75 83 8
75 84 10
75 85 6
75 86 9
75 87 10
75 88 5
75 90 8
75 91 6
75 92 8
75 96 6
75 97 5
75 98 7
75 99 1
75 100 5
75 103 10
75 106 4
75 107 7
75 108 5
75 111 6
75 112 2
75 113 6
75 114 3
75 116 8
75 119 10
75 120 5
75 123 3
75 124 7
75 125 4
75 126 3
75 128 10
75 130 9
75 131 10
75 132 10
75 134 9
75 135 10
75 136 3
75 138 3
75 139 8
75 140 1
75 141 2
75 142 2
75 143 10
75 144 5
75 145 3
75 146 1
75 147 10
75 148 2
75 149 8
75 150 2
75 151 8
75 153 9
75 155 6
75 157 5
75 159 1
75 162 4
75 163 10
75 164 9
75 166 9
75 168 2
75 169 2
75 172 6
75 174 6
75 175 3
75 176 2
75 177 6
75 178 2
75 179 4
75 180 8
75 182 3
75 183 7
75 186 5
75 187 8
75 189 9
75 190 3
75 193 8
75 194 1
75 195 2
75 196 3
75 198 6
75 199 1
75 200 7
75 201 10
75 202 2
75 205 7
75 208 7
75 212 3
75 213 2
75 214 4
75 216 7
75 217 8
75 219 3
75 220 3
75 222 7
75 223 7
75 224 8
75 225 9
75 226 2
75 227 2
75 228 1
75 229 8
75 230 5
75 231 9
75 233 10
75 235 9
75 236 4
75 239 9
75 241 3
75 242 7
75 243 2
75 244 2
75 245 5
75 246 10
75 247 1
75 249 9
75 251 6
75 252 10
75 254 1
75 256 1
75 258 9
75 259 10
75 260 5
75 261 7
75 262 4
75 265 2
75 266 10
75 267 1
75 269 4
75 272 1
75 274 4
75 276 1
75 277 4
75 279 5
75 280 7
75 281 3
75 282 8
75 283 7
75 284 2
75 285 6
75 286 9
75 287 2
75 290 6
75 291 2
75 292 2
75 293 3
75 294 1
75 296 5
75 297 6
75 298 1
75 299 6
75 300 10
76 77 5
76 78 5
76 79 6
76 80 7
76 84 9
76 85 8
76 88 2
76 89 1
76 90 9
76 91 2
76 92 5
76 94 2
76 95 2
76 96 4
76 98 10
76 99 3
76 102 6
76 103 6
76 105 6
76 106 4
76 109 6
76 110 4
76 111 8
76 113 6
76 114 2
76 115 9
76 118 5
76 119 1
76 120 1
76 122 9
76 124 4
76 125 3
76 126 8
76 128 7
76 129 10
76 130 5
76 131 6
76 132 5
76 133 3
76 135 3
76 136 2
76 137 2
76 138 5
76 139 6
76 140 6
76 143 3
76 144 3
76 145 2
76 146 7
76 147 6
76 148 10
76 150 8
76 151 10
76 153 4
76 154 5
76 155 5
76 156 3
76 157 1
76 158 4
76 160 4
76 162 1
76 164 8
76 165 6
76 166 10
76 168 8
76 169 9
76 170 2
76 171 10
76 172 3
76 174 4
76 175 5
76 176 1
76 177 1
76 178 8
76 179 2
76 180 7
76 183 10
76 184 4
76 185 3
76 187 3
76 188 7
76 189 10
76 190 10
76 191 4
76 192 10
76 193 7
76 194 3
76 195 9
76 196 2
76 198 4
76 199 6
76 200 7
76 202 8
76 203 5
76 204 5
76 205 9
76 206 10
76 207 2
76 208 1
76 209 9
76 210 2
76 212 8
76 213 5
76 214 4
76 215 4
76 217 8
76 218 10
76 221 4
76 222 5
76 226 3
76 227 1
76 229 8
76 230 8
76 231 7
76 232 5
76 235 2
76 236 5
76 238 4
76 239 6
76 240 8
76 241 9
76 244 10
76 245 10
76 248 1
76 249 2
76 250 4
76 251 1
76 252 4
76 254 7
76 257 9
76 258 5
76 259 5
76 261 1
76 262 10
76 263 3
76 265 9
76 266 7
76 267 6
76 268 10
76 269 10
76 270 2
76 272 3
76 273 4
76 274 4
76 275 2
76 276 4
76 280 9
76 281 8
76 284 5
76 285 4
76 286 4
76 287 10
76 289 1
76 291 3
76 292 2
76 293 4
76 294 5
76 295 5
76 296 6
76 297 2
76 298 3
77 79 1
77 81 3
77 82 10
77 84 5
77 85 4
77 88 10
77 89 1
77 90 9
77 91 2
77 92 4
77 93 10
77 94 9
77 95 7
77 96 1
77 97 1
77 99 8
77 100 9
77 101 4
77 102 5
77 104 8
77 106 1
77 107 3
77 108 3
77 109 3
77 110 5
77 111 4
77 113 9
77 114 7
77 115 7
77 117 7
77 118 10
77 119 1
77 120 6
77 123 8
77 124 1
77 125 5
77 126 1
77 127 4
77 128 2
77 130 9
77 131 8
77 132 3
77 134 2
77 135 9
77 136 5
77 138 4
77 139 6
77 140 2
77 141 7
77 142 8
77 143 7
77 145 2
77 146 9
77 147 6
77 149 10
77 151 3
77 152 4
77 154 9
77 156 6
77 157 5
77 158 8
77 161 1
77 162 6
77 163 7
77 164 10
77 165 10
77 166 10
77 167 6
77 170 10
77 171 3
77 173 3
77 174 6
77 175 9
77 177 1
77 178 7
77 179 4
77 180 7
77 184 5
77 185 6
77 187 6
77 188 5
77 189 5
77 190 6
77 191 6
77 192 6
77 193 4
77 194 8
77 197 3
77 199 7
77 200 4
77 202 6
77 204 1
77 205 4
77 207 6
77 208 2
77 209 3
77 210 2
77 211 1
77 213 7
77 214 9
77 216 5
77 218 4
77 219 5
77 220 5
77 222 1
77 224 8
77 226 7
77 227 6
77 230 10
77 234 4
77 235 1
77 236 6
77 237 7
77 239 2
77 240 2
77 241 2
77 242 2
77 244 7
77 245 5
77 247 6
77 248 8
77 249 2
77 250 5
77 252 9
77 253 6
77 255 3
77 258 9
77 259 1
77 260 9
77 261 9
77 262 7
77 264 8
77 265 4
77 266 3
77 267 10
77 268 5
77 269 7
77 270 3
77 271 3
77 272 7
77 273 6
77 274 5
77 275 9
77 276 3
77 277 3
77 278 10
77 279 3
77 281 6
77 282 4
77 283 10
77 284 1
77 285 6
77 287 3
77 288 9
77 289 1
77 290 8
77 292 7
77 294 1
77 300 8
78 80 6
78 81 8
78 82 9
78 83 9
78 84 1
78 85 4
78 88 10
78 89 7
78 90 4
78 91 8
78 92 1
78 93 3
78 94 9
78 95 9
78 96 5
78 97 2
78 98 7
78 99 2
78 100 7
78 101 6
78 103 8
78 105 7
78 108 1
78 109 2
78 110 2
78 111 6
78 112 4
78 116 4
78 117 9
78 118 6
78 121 9
78 123 9
78 125 5
78 129 3
78 130 5
78 131 8
78 132 8
78 133 8
78 134 10
78 135 6
78 140 6
78 141 10
78 142 6
78 143 7
78 144 6
78 145 7
78 146 1
78 148 3
78 149 7
78 150 1
78 152 3
78 157 10
78 158 7
78 159 9
78 161 2
78 162 10
78 163 8
78 164 8
78 165 1
78 166 6
78 167 7
78 168 3
78 171 8
78 172 1
78 174 4
78 175 4
78 176 4
78 177 9
78 178 2
78 179 2
78 180 8
78 181 6
78 182 8
78 183 6
78 184 2
78 185 7
78 186 3
78 187 9
78 188 8
78 189 6
78 190 6
78 191 10
78 193 9
78 194 5
78 195 10
78 196 8
78 198 1
78 199 2
78 200 7
78 201 2
78 202 7
78 204 6
78 205 2
78 206 3
78 208 5
78 210 9
78 212 8
78 214 8
78 215 3
78 217 8
78 218 9
78 219 5
78 220 9
78 221 4
78 222 5
78 223 3
78 224 1
78 226 6
78 230 3
78 231 2
78 232 10
78 233 4
78 234 8
78 236 5
78 237 4
78 238 6
78 239 4
78 240 4
78 241 2
78 243 2
78 244 6
78 246 6
78 247 10
78 248 5
78 249 10
78 251 7
78 252 8
78 253 10
78 255 9
78 256 6
78 258 2
78 259 6
78 263 4
78 264 7
78 265 9
78 267 1
78 268 6
78 269 7
78 270 1
78 273 2
78 274 2
78 275 1
78 278 5
78 280 8
78 281 7
78 283 8
78 284 4
78 287 7
78 288 7
78 289 8
78 293 5
78 296 5
78 297 1
78 299 7
78 300 1
79 80 8
79 81 4
79 82 2
79 83 7
79 84 7
79 85 2
79 86 2
79 88 2
79 89 5
79 90 6
79 91 2
79 92 3
79 93 7
79 94 9
79 95 1
79 98 5
79 99 6
79 100 3
79 102 6
79 103 6
79 105 1
79 106 2
79 107 5
79 108 2
79 111 3
79 113 10
79 114 3
79 115 6
79 118 6
79 119 10
79 120 10
79 121 3
79 122 2
79 123 4
79 124 3
79 128 6
79 129 9
79 130 4
79 131 4
79 133 2
79 136 2
79 137 10
79 138 5
79 139 1
79 141 2
79 143 2
79 144 5
79 146 8
79 147 10
79 148 2
79 150 8
79 151 7
79 155 6
79 156 10
79 157 5
79 160 3
79 161 4
79 162 5
79 165 7
79 166 7
79 167 9
79 168 2
79 171 5
79 172 9
79 173 1
79 174 5
79 175 8
79 176 10
79 177 7
79 178 10
79 179 1
79 180 10
79 183 5
79 184 5
79 185 1
79 187 8
79 188 3
79 190 10
79 191 9
79 195 2
79 196 5
79 197 2
79 198 6
79 199 3
79 200 5
79 201 8
79 202 4
79 203 3
79 205 1
79 207 1
79 209 3
79 211 6
79 212 8
79 213 9
79 215 5
79 216 3
79 218 3
79 219 1
79 220 9
79 221 10
79 224 8
79 225 5
79 226 5
79 228 1
79 230 3
79 231 8
79 233 5
79 234 9
79 235 1
79 236 7
79 237 9
79 238 7
79 239 8
79 240 5
79 241 2
79 242 2
79 244 5
79 245 4
79 246 4
79 247 2
79 248 6
79 250 9
79 254 4
79 255 6
79 256 5
79 258 9
79 259 9
79 260 6
79 261 10
79 262 7
79 263 9
79 264 7
79 265 10
79 267 8
79 269 5
79 270 7
79 272 10
79 275 1
79 277 8
79 278 7
79 279 7
79 280 1
79 282 2
79 283 9
79 284 2
79 288 3
79 289 6
79 292 3
79 293 10
79 294 9
79 296 5
79 297 1
79 299 9
80 82 4
80 84 4
80 85 9
80 87 10
80 92 4
80 95 10
80 97 3
80 103 8
80 107 6
80 108 4
80 109 3
80 110 4
80 111 2
80 112 1
80 113 9
80 115 4
80 116 3
80 117 4
80 118 5
80 119 10
80 120 6
80 121 10
80 122 1
80 124 4
80 127 9
80 128 3
80 130 9
80 131 8
80 132 5
80 133 5
80 138 6
80 139 9
80 140 3
80 142 8
80 143 4
80 144 9
80 145 9
80 146 10
80 147 3
80 148 1
80 149 10
80 150 10
80 151 6
80 152 4
80 153 6
80 154 6
80 155 9
80 156 4
80 160 10
80 161 1
80 162 2
80 163 5
80 164 2
80 165 7
80 168 8
80 169 3
80 170 1
80 171 9
80 172 7
80 174 8
80 177 9
80 179 1
80 180 3
80 182 5
80 183 10
80 184 3
80 185 4
80 186 2
80 188 5
80 189 8
80 191 10
80 192 4
80 193 10
80 194 5
80 195 9
80 197 9
80 198 10
80 200 4
80 201 3
80 202 5
80 203 6
80 204 6
80 205 10
80 206 5
80 207 2
80 209 2
80 210 4
80 211 8
80 212 6
80 213 8
80 214 1
80 215 3
80 216 3
80 217 5
80 218 3
80 219 4
80 222 2
80 223 1
80 224 3
80 225 7
80 226 3
80 228 4
80 229 9
80 230 6
80 231 4
80 232 8
80 233 2
80 234 2
80 235 4
80 236 7
80 237 6
80 239 10
80 240 6
80 242 4
80 243 3
80 244 6
80 245 2
80 246 7
80 248 1
80 250 1
80 252 10
80 253 1
80 256 3
80 257 9
80 258 2
80 259 8
80 260 3
80 261 3
80 262 3
80 264 5
80 265 2
80 267 9
80 269 4
80 270 3
80 271 7
80 272 2
80 275 5
80 276 10
80 277 8
80 278 2
80 279 1
80 280 3
80 281 6
80 282 7
80 283 9
80 284 9
80 285 8
80 286 7
80 287 4
80 288 7
80 289 2
80 290 4
80 292 1
80 293 9
80 294 4
80 295 9
80 297 6
80 298 2
80 299 3
80 300 6
81 84 2
81 85 2
81 86 4
81 87 7
81 88 10
81 90 8
81 91 1
81 92 10
81 94 1
81 95 1
81 97 2
81 98 7
81 99 5
81 100 4
81 102 6
81 103 10
81 108 5
81 109 8
81 110 1
81 112 3
81 113 8
81 115 4
81 116 7
81 118 5
81 120 2
81 123 3
81 124 7
81 126 5
81 127 8
81 128 2
81 130 1
81 132 10
81 133 1
81 134 7
81 135 8
81 138 5
81 139 10
81 141 1
81 143 10
81 145 1
81 146 7
81 147 8
81 150 1
81 152 9
81 158 1
81 159 7
81 160 2
81 161 10
81 162 1
81 163 7
81 165 5
81 166 6
81 167 7
81 168 9
81 169 10
81 172 10
81 174 1
81 175 5
81 177 4
81 179 5
81 180 9
81 184 6
81 187 8
81 188 9
81 195 10
81 196 7
81 201 1
81 202 2
81 204 8
81 206 5
81 207 5
81 208 8
81 209 2
81 211 3
81 215 6
81 216 8
81 218 10
81 219 8
81 220 5
81 221 4
81 222 9
81 223 8
81 224 4
81 225 9
81 226 8
81 227 4
81 229 3
81 230 2
81 232 2
81 233 4
81 234 10
81 235 10
81 236 9
81 237 1
81 238 3
81 239 10
81 241 2
81 243 5
81 245 2
81 246 7
81 247 7
81 248 8
81 249 8
81 251 7
81 252 9
81 254 2
81 258 2
81 259 1
81 261 7
81 262 1
81 267 9
81 268 1
81 269 6
81 272 1
81 273 1
81 274 10
81 275 7
81 276 3
81 277 1
81 278 2
81 281 6
81 282 8
81 283 4
81 287 5
81 288 1
81 289 3
81 290 4
81 291 2
81 292 6
81 293 5
81 294 8
81 295 2
81 296 7
81 300 10
82 83 10
82 84 5
82 86 10
82 87 8
82 89 4
82 90 9
82 91 10
82 92 4
82 93 4
82 94 7
82 95 10
82 96 8
82 98 4
82 99 8
82 100 3
82 101 10
82 102 6
82 103 10
82 106 7
82 107 4
82 108 3
82 109 10
82 113 1
82 114 2
82 115 10
82 118 1
82 121 4
82 122 6
82 123 5
82 126 7
82 127 8
82 128 3
82 130 8
82 131 9
82 132 2
82 133 4
82 134 8
82 137 5
82 138 5
82 139 3
82 140 8
82 141 6
82 142 9
82 143 1
82 145 10
82 146 8
82 147 9
82 148 10
82 150 9
82 151 6
82 152 2
82 153 5
82 154 5
82 155 4
82 156 6
82 157 6
82 158 7
82 160 10
82 161 9
82 162 5
82 163 6
82 164 6
82 165 9
82 166 9
82 167 10
82 169 8
82 170 7
82 171 10
82 172 2
82 175 8
82 176 4
82 177 6
82 178 10
82 179 8
82 180 4
82 181 3
82 182 5
82 183 9
82 184 2
82 186 5
82 187 5
82 190 8
82 192 4
82 194 9
82 195 1
82 197 10
82 198 8
82 201 9
82 203 1
82 204 7
82 206 9
82 208 3
82 209 2
82 210 3
82 212 7
82 213 4
82 214 4
82 215 7
82 218 8
82 219 9
82 220 7
82 221 9
82 222 1
82 224 7
82 225 7
82 226 7
82 227 2
82 228 8
82 230 7
82 231 10
82 232 3
82 236 9
82 238 4
82 239 10
82 240 2
82 242 8
82 243 4
82 244 1
82 245 10
82 246 3
82 250 3
82 251 10
82 252 9
82 255 3
82 256 9
82 257 8
82 259 1
82 263 5
82 264 4
82 265 7
82 266 10
82 267 6
82 268 1
82 270 4
82 271 7
82 272 8
82 274 2
82 275 7
82 276 9
82 277 1
82 280 9
82 282 6
82 283 3
82 284 4
82 285 4
82 286 6
82 288 4
82 289 1
82 290 6
82 291 4
82 292 8
82 293 8
82 294 4
82 295 3
82 296 8
82 297 10
82 298 6
82 300 6
83 85 6
83 87 4
83 93 5
83 94 10
83 95 2
83 97 4
83 98 9
83 99 1
83 100 7
83 101 9
83 103 4
83 104 4
83 105 9
83 106 4
83 107 9
83 108 1
83 110 5
83 111 8
83 112 1
83 114 3
83 115 9
83 116 8
83 117 2
83 118 8
83 120 3
83 121 8
83 123 6
83 124 6
83 125 9
83 126 2
83 127 3
83 128 3
83 129 7
83 131 4
83 133 8
83 134 8
83 135 6
83 136 7
83 137 10
83 140 6
83 141 4
83 142 4
83 143 9
83 145 2
83 147 4
83 149 10
83 150 4
83 151 7
83 152 3
83 156 9
83 157 3
83 159 4
83 161 1
83 162 1
83 165 8
83 166 8
83 167 2
83 168 8
83 169 1
83 170 5
83 171 7
83 173 4
83 174 4
83 176 2
83 177 2
83 178 1
83 179 4
83 183 3
83 184 5
83 185 3
83 186 3
83 187 2
83 188 1
83 190 3
83 191 5
83 192 4
83 193 1
83 194 4
83 196 7
83 197 8
83 199 2
83 201 9
83 202 8
83 203 6
83 204 10
83 207 8
83 208 7
83 209 9
83 211 6
83 212 4
83 213 10
83 215 10
83 217 10
83 218 6
83 219 9
83 221 1
83 226 9
83 227 4
83 228 6
83 229 1
83 230 7
83 231 1
83 234 5
83 235 4
83 236 4
83 238 7
83 241 10
83 244 6
83 247 1
83 249 7
83 251 3
83 252 4
83 253 2
83 255 10
83 256 9
83 258 9
83 259 10
83 260 7
83 261 2
83 262 4
83 264 2
83 265 8
83 266 6
83 269 3
83 270 1
83 271 7
83 272 4
83 273 2
83 274 10
83 275 7
83 277 8
83 278 5
83 279 9
83 280 5
83 281 7
83 282 10
83 283 7
83 284 3
83 285 9
83 286 9
83 287 8
83 288 3
83 289 4
83 291 8
83 292 4
83 296 10
83 297 8
83 298 5
83 299 7
84 85 8
84 88 6
84 89 9
84 90 10
84 91 10
84 93 9
84 94 10
84 95 10
84 97 9
84 101 1
84 102 3
84 105 4
84 109 1
84 110 2
84 112 4
84 114 3
84 115 1
84 118 4
84 119 9
84 120 8
84 121 3
84 124 10
84 125 4
84 128 3
84 129 6
84 130 9
84 131 1
84 132 5
84 133 1
84 134 6
84 135 8
84 136 3
84 137 4
84 138 1
84 140 3
84 142 3
84 145 6
84 147 6
84 148 8
84 150 1
84 151 9
84 153 1
84 155 6
84 156 8
84 158 7
84 159 2
84 160 10
84 162 6
84 163 10
84 164 7
84 165 8
84 167 3
84 168 3
84 171 1
84 172 9
84 173 8
84 174 6
84 175 9
84 176 7
84 179 2
84 180 1
84 181 8
84 182 2
84 184 9
84 185 1
84 187 3
84 188 4
84 189 1
84 190 7
84 191 7
84 192 1
84 193 4
84 195 4
84 196 10
84 198 4
84 199 6
84 200 1
84 202 6
84 203 5
84 206 6
84 207 2
84 208 6
84 209 8
84 210 8
84 211 9
84 212 4
84 214 8
84 217 6
84 218 9
84 219 10
84 222 5
84 223 7
84 224 1
84 225 4
84 226 9
84 230 8
84 231 10
84 232 5
84 233 10
84 236 4
84 238 10
84 239 8
84 240 3
84 241 1
84 243 5
84 244 8
84 245 3
84 247 3
84 248 1
84 249 3
84 250 10
84 253 1
84 254 2
84 255 9
84 256 9
84 259 7
84 260 10
84 261 5
84 262 4
84 263 8
84 264 7
84 265 6
84 266 8
84 267 1
84 268 9
84 269 2
84 271 9
84 272 9
84 273 2
84 274 3
84 276 5
84 278 4
84 279 8
84 281 10
84 282 1
84 284 9
84 286 10
84 287 3
84 288 4
84 289 4
84 292 10
84 293 8
84 294 9
84 295 9
84 296 8
84 299 10
84 300 3
85 86 10
85 87 3
85 88 4
85 89 7
85 90 10
85 91 9
85 93 8
85 94 2
85 95 3
85 96 7
85 97 1
85 99 9
85 101 3
85 102 3
85 104 4
85 106 7
85 109 4
85 110 3
85 111 2
85 113 1
85 114 8
85 115 10
85 118 2
85 120 8
85 122 6
85 123 8
85 124 8
85 125 3
85 126 5
85 127 6
85 128 4
85 130 3
85 131 8
85 132 8
85 133 6
85 134 2
85 135 4
85 136 3
85 138 9
85 139 3
85 140 5
85 141 3
85 142 7
85 143 1
85 144 8
85 146 8
85 147 5
85 148 10
85 149 2
85 152 8
85 154 9
85 155 8
85 156 10
85 157 3
85 158 10
85 159 10
85 160 2
85 164 4
85 165 1
85 167 2
85 168 3
85 169 9
85 171 4
85 172 10
85 173 5
85 174 5
85 175 4
85 177 10
85 178 4
85 179 4
85 180 10
85 181 1
85 182 4
85 183 6
85 185 4
85 186 8
85 187 2
85 188 5
85 190 9
85 191 3
85 192 4
85 193 3
85 194 9
85 195 3
85 197 1
85 198 8
85 200 2
85 201 3
85 203 10
85 204 2
85 205 10
85 206 1
85 207 8
85 208 6
85 209 1
85 210 8
85 211 5
85 214 5
85 215 7
85 218 6
85 219 9
85 220 3
85 221 3
85 223 9
85 224 5
85 225 2
85 226 8
85 227 6
85 228 9
85 229 3
85 232 4
85 233 7
85 234 6
85 235 5
85 236 5
85 237 7
85 239 1
85 240 8
85 242 2
85 243 7
85 245 4
85 246 1
85 248 9
85 249 9
85 251 3
85 252 10
85 253 3
85 254 10
85 255 5
85 257 5
85 258 8
85 259 5
85 260 9
85 261 10
85 262 6
85 263 7
85 264 5
85 265 1
85 266 10
85 267 1
85 268 3
85 269 9
85 271 9
85 272 6
85 273 1
85 275 3
85 277 6
85 278 1
85 279 9
85 281 10
85 283 2
85 284 8
85 285 5
85 286 4
85 287 3
85 289 4
85 291 5
85 295 6
85 296 10
85 297 3
85 299 10
85 300 2
86 87 5
86 90 5
86 92 8
86 93 2
86 94 1
86 95 5
86 96 6
86 98 3
86 99 8
86 100 9
86 101 7
86 103 10
86 105 6
86 106 2
86 108 2
86 109 7
86 111 3
86 112 1
86 113 8
86 114 4
86 115 10
86 116 8
86 119 9
86 121 4
86 122 9
86 123 7
86 124 2
86 125 4
86 126 4
86 127 7
86 128 7
86 129 6
86 130 10
86 132 4
86 133 9
86 136 10
86 138 2
86 139 6
86 140 8
86 143 8
86 145 7
86 149 7
86 150 6
86 151 6
86 153 1
86 154 7
86 155 5
86 156 6
86 157 1
86 158 8
86 161 8
86 163 6
86 164 3
86 165 5
86 166 2
86 168 9
86 169 7
86 171 4
86 172 4
86 173 9
86 175 6
86 176 3
86 177 10
86 178 3
86 180 2
86 181 2
86 183 9
86 184 4
86 185 2
86 186 2
86 187 2
86 189 5
86 190 6
86 192 1
86 193 6
86 195 4
86 196 3
86 197 3
86 198 6
86 199 8
86 200 4
86 201 6
86 202 4
86 204 6
86 205 7
86 207 8
86 210 2
86 211 1
86 212 6
86 213 2
86 214 5
86 215 1
86 216 7
86 217 9
86 220 9
86 222 3
86 223 4
86 226 2
86 230 7
86 231 8
86 232 9
86 235 5
86 236 10
86 238 8
86 239 8
86 240 4
86 241 6
86 243 5
86 245 3
86 247 3
86 248 5
86 249 4
86 250 1
86 251 5
86 252 5
86 253 6
86 254 2
86 255 8
86 256 5
86 257 1
86 258 9
86 259 2
86 260 7
86 261 5
86 263 1
86 265 2
86 266 8
86 267 6
86 268 6
86 269 8
86 270 3
86 271 3
86 274 3
86 276 10
86 277 3
86 278 9
86 279 5
86 280 9
86 281 3
86 282 10
86 283 8
86 284 5
86 287 10
86 288 10
86 289 5
86 290 6
86 293 9
86 294 5
86 295 2
86 296 6
86 297 8
86 298 6
87 88 10
87 89 8
87 91 2
87 92 10
87 94 5
87 96 3
87 97 5
87 98 7
87 99 5
87 100 5
87 101 9
87 102 8
87 104 2
87 105 2
87 106 6
87 108 2
87 109 3
87 110 6
87 111 1
87 112 6
87 113 7
87 115 4
87 117 10
87 118 3
87 119 1
87 120 4
87 122 2
87 123 9
87 124 6
87 127 3
87 129 5
87 132 1
87 134 6
87 135 8
87 136 2
87 139 5
87 140 1
87 142 2
87 144 3
87 145 7
87 146 9
87 149 1
87 150 8
87 151 10
87 152 1
87 153 2
87 154 6
87 157 2
87 158 1
87 160 4
87 161 3
87 162 9
87 164 3
87 165 5
87 167 1
87 169 5
87 170 6
87 171 10
87 173 1
87 174 5
87 175 10
87 176 7
87 178 10
87 179 5
87 180 3
87 181 3
87 182 1
87 183 5
87 184 7
87 186 9
87 187 10
87 188 9
87 190 3
87 193 8
87 195 8
87 196 5
87 197 7
87 199 2
87 200 1
87 201 10
87 202 5
87 205 8
87 207 3
87 208 8
87 209 8
87 210 4
87 211 4
87 212 7
87 214 7
87 215 5
87 218 3
87 219 8
87 220 4
87 222 6
87 224 8
87 225 10
87 227 7
87 230 10
87 231 1
87 232 9
87 233 10
87 239 5
87 240 8
87 241 10
87 242 9
87 243 4
87 244 6
87 245 4
87 246 1
87 247 10
87 248 9
87 249 10
87 250 8
87 251 10
87 252 9
87 253 1
87 254 1
87 255 6
87 257 2
87 259 10
87 260 8
87 264 6
87 265 6
87 266 10
87 267 2
87 268 6
87 269 9
87 270 6
87 271 3
87 272 6
87 273 4
87 274 2
87 275 3
87 276 6
87 277 8
87 279 7
87 280 9
87 282 9
87 283 2
87 284 5
87 285 2
87 288 2
87 289 4
87 290 9
87 292 4
87 293 6
87 294 4
87 297 9
87 299 7
87 300 4
88 89 6
88 92 7
88 94 6
88 95 8
88 98 7
88 99 7
88 100 2
88 103 1
88 104 1
88 105 3
88 108 10
88 112 4
88 113 1
88 114 7
88 115 2
88 116 9
88 119 1
88 120 6
88 121 3
88 122 9
88 124 6
88 125 7
88 127 6
88 128 6
88 129 1
88 130 6
88 132 5
88 133 3
88 135 6
88 136 10
88 139 7
88 140 2
88 142 6
88 143 6
88 144 8
88 145 7
88 148 3
88 151 9
88 152 7
88 154 5
88 155 4
88 156 4
88 158 1
88 159 6
88 160 9
88 161 3
88 162 9
88 163 3
88 165 9
88 167 6
88 172 10
88 173 2
88 174 2
88 178 5
88 179 4
88 180 8
88 181 5
88 183 1
88 185 8
88 186 1
88 187 6
88 188 1
88 189 1
88 190 8
88 192 3
88 195 5
88 197 8
88 198 2
88 199 3
88 201 6
88 202 4
88 204 7
88 205 6
88 206 3
88 207 10
88 212 8
88 214 8
88 215 10
88 218 5
88 219 4
88 220 10
88 221 4
88 222 6
88 223 9
88 224 3
88 225 6
88 226 5
88 228 2
88 229 7
88 230 2
88 231 7
88 232 9
88 233 2
88 234 5
88 235 8
88 236 9
88 237 9
88 238 3
88 239 10
88 241 9
88 243 4
88 245 2
88 247 10
88 248 5
88 249 8
88 250 6
88 252 2
88 254 4
88 255 10
88 256 6
88 257 5
88 258 9
88 259 8
88 260 3
88 261 1
88 262 2
88 263 9
88 265 10
88 266 2
88 268 7
88 269 3
88 273 1
88 274 5
88 277 8
88 278 5
88 280 8
88 281 2
88 282 2
88 283 5
88 284 1
88 285 8
88 287 2
88 288 1
88 289 6
88 290 6
88 291 9
88 292 4
88 293 3
88 294 9
88 297 6
89 90 4
89 91 4
89 92 3
89 93 10
89 95 1
89 96 10
89 97 6
89 101 1
89 102 8
89 103 10
89 105 1
89 106 1
89 107 5
89 113 5
89 114 3
89 115 4
89 116 3
89 117 9
89 118 9
89 119 8
89 120 4
89 121 1
89 122 10
89 124 4
89 125 7
89 126 1
89 128 9
89 130 10
89 131 8
89 132 6
89 134 7
89 135 10
89 136 1
89 137 4
89 138 9
89 139 9
89 140 8
89 142 5
89 143 4
89 144 9
89 146 7
89 149 7
89 150 3
89 151 10
89 152 3
89 153 3
89 154 5
89 156 10
89 157 5
89 158 8
89 160 7
89 161 2
89 163 3
89 164 6
89 165 7
89 166 5
89 167 2
89 168 2
89 169 5
89 170 2
89 171 3
89 172 9
89 175 5
89 176 7
89 177 10
89 180 7
89 181 4
89 182 3
89 185 4
89 186 9
89 187 8
89 188 5
89 189 8
89 190 2
89 191 4
89 192 2
89 195 6
89 196 10
89 197 7
89 198 10
89 199 5
89 200 8
89 201 6
89 202 7
89 203 8
89 204 8
89 205 2
89 206 3
89 207 3
89 209 2
89 210 4
89 211 5
89 212 4
89 214 1
89 215 9
89 216 5
89 217 5
89 218 9
89 219 6
89 221 8
89 223 3
89 227 7
89 228 7
89 229 4
89 230 6
89 231 7
89 235 4
89 236 9
89 239 5
89 241 4
89 242 4
89 243 8
89 244 2
89 246 9
89 248 5
89 249 5
89 252 3
89 253 6
89 254 6
89 255 4
89 258 5
89 259 9
89 262 4
89 263 10
89 264 4
89 266 2
89 267 2
89 268 9
89 269 6
89 270 8
89 271 10
89 272 7
89 274 9
89 275 8
89 276 9
89 277 8
89 278 1
89 281 2
89 282 10
89 286 4
89 288 6
89 293 1
89 294 4
89 296 5
89 297 4
89 298 10
89 299 3
89 300 1
90 91 3
90 93 8
90 94 3
90 95 1
90 96 2
90 98 1
90 99 3
90 102 10
90 103 7
90 104 7
90 105 5
90 107 10
90 108 10
90 110 4
90 111 1
90 112 9
90 114 3
90 115 7
90 116 8
90 118 10
90 119 3
90 120 7
90 121 8
90 123 1
90 124 1
90 125 2
90 126 6
90 127 9
90 129 4
90 131 8
90 132 7
90 133 3
90 136 2
90 138 8
90 140 6
90 142 9
90 143 8
90 145 9
90 146 6
90 147 3
90 148 1
90 149 3
90 150 1
90 152 10
90 153 5
90 154 8
90 155 5
90 158 7
90 159 10
90 160 1
90 161 2
90 163 4
90 164 7
90 166 3
90 170 4
90 171 2
90 172 3
90 175 7
90 176 4
90 177 2
90 178 4
90 179 1
90 180 4
90 181 10
90 183 5
90 185 2
90 186 3
90 187 3
90 191 7
90 192 6
90 193 7
90 194 7
90 196 8
90 198 1
90 199 8
90 201 6
90 203 1
90 204 3
90 205 9
90 206 5
90 208 10
90 209 1
90 210 5
90 211 9
90 212 2
90 213 6
90 215 2
90 216 1
90 217 3
90 219 4
90 220 2
90 221 1
90 222 8
90 223 8
90 224 9
90 225 2
90 227 3
90 228 10
90 229 5
90 231 1
90 232 1
90 234 10
90 235 5
90 238 4
90 239 1
90 240 5
90 243 7
90 245 6
90 246 2
90 248 5
90 249 3
90 250 10
90 251 1
90 252 5
90 253 4
90 255 7
90 256 9
90 257 4
90 259 9
90 260 5
90 261 2
90 262 4
90 263 7
90 264 9
90 266 8
90 267 2
90 268 10
90 269 5
90 270 5
90 271 1
90 272 1
90 273 5
90 275 2
90 277 9
90 278 1
90 279 7
90 280 6
90 281 7
90 282 6
90 283 4
90 284 1
90 286 3
90 287 4
90 288 6
90 290 9
90 291 1
90 294 7
90 295 2
90 296 5
90 297 4
90 300 5
91 93 4
91 94 4
91 95 2
91 98 10
91 99 3
91 100 4
91 101 8
91 102 9
91 103 6
91 104 1
91 105 7
91 106 5
91 107 2
91 111 9
91 112 7
91 113 4
91 114 8
91 116 9
91 117 7
91 118 6
91 120 10
91 121 10
91 124 3
91 125 5
91 128 3
91 129 2
91 131 5
91 132 10
91 134 3
91 137 4
91 139 7
91 140 3
91 141 3
91 143 1
91 145 8
91 146 2
91 147 7
91 148 5
91 149 8
91 150 5
91 152 6
91 153 9
91 155 4
91 156 4
91 157 5
91 159 1
91 160 4
91 161 1
91 162 2
91 163 9
91 164 3
91 165 6
91 166 3
91 167 8
91 168 5
91 169 9
91 171 1
91 175 3
91 176 3
91 177 3
91 178 2
91 180 5
91 181 5
91 183 1
91 184 9
91 185 3
91 186 5
91 187 2
91 188 4
91 189 6
91 190 1
91 191 5
91 192 10
91 193 10
91 195 3
91 196 5
91 198 6
91 199 10
91 201 7
91 202 6
91 204 6
91 206 5
91 207 7
91 208 1
91 209 6
91 210 7
91 213 9
91 214 8
91 215 3
91 217 4
91 218 1
91 219 5
91 220 3
91 221 5
91 222 6
91 223 4
91 225 3
91 226 8
91 228 4
91 230 10
91 231 2
91 232 6
91 233 10
91 234 3
91 235 2
91 236 1
91 237 2
91 238 9
91 239 3
91 240 3
91 242 3
91 244 9
91 247 2
91 248 3
91 249 5
91 251 8
91 252 8
91 253 8
91 254 4
91 255 4
91 258 6
91 259 2
91 261 6
91 264 7
91 265 7
91 266 4
91 267 4
91 269 3
91 270 6
91 271 6
91 272 10
91 275 10
91 276 5
91 277 6
91 278 9
91 279 6
91 281 8
91 285 5
91 286 2
91 287 6
91 288 2
91 289 3
91 290 8
91 291 7
91 292 3
91 293 5
91 294 4
91 295 8
91 296 8
91 299 10
92 94 2
92 95 9
92 96 8
92 99 9
92 100 2
92 101 5
92 103 3
92 106 2
92 107 6
92 108 7
92 109 5
92 110 10
92 112 1
92 113 7
92 115 8
92 116 1
92 117 4
92 118 9
92 119 7
92 120 5
92 121 3
92 122 6
92 124 10
92 125 1
92 128 1
92 129 5
92 131 3
92 133 5
92 134 4
92 135 2
92 136 10
92 137 4
92 138 8
92 139 5
92 140 6
92 141 6
92 142 1
92 143 6
92 144 7
92 145 6
92 148 2
92 149 7
92 152 2
92 155 10
92 156 3
92 157 2
92 158 1
92 159 4
92 161 8
92 162 7
92 163 3
92 164 1
92 166 4
92 167 6
92 168 1
92 169 1
92 170 10
92 171 1
92 172 4
92 173 1
92 174 2
92 175 10
92 176 2
92 178 2
92 179 10
92 180 5
92 181 10
92 182 1
92 183 1
92 184 3
92 185 5
92 186 4
92 187 1
92 191 4
92 192 6
92 196 1
92 197 8
92 199 5
92 200 4
92 202 5
92 204 7
92 205 5
92 206 3
92 210 8
92 211 6
92 213 9
92 216 7
92 217 6
92 218 9
92 219 1
92 220 10
92 222 8
92 223 5
92 226 2
92 228 6
92 229 10
92 231 8
92 232 3
92 233 10
92 234 6
92 235 4
92 237 2
92 238 7
92 239 9
92 240 7
92 241 6
92 242 8
92 244 1
92 245 2
92 246 2
92 247 4
92 249 8
92 250 5
92 252 2
92 253 1
92 254 1
92 255 8
92 256 4
92 259 7
92 260 2
92 261 8
92 262 3
92 263 1
92 264 8
92 265 9
92 266 4
92 268 5
92 269 10
92 270 4
92 271 8
92 272 8
92 273 9
92 274 2
92 276 9
92 277 3
92 278 4
92 280 10
92 281 5
92 283 2
92 285 3
92 286 9
92 289 4
92 290 10
92 291 2
92 293 4
92 294 10
92 297 2
92 300 7
93 94 7
93 96 4
93 99 9
93 100 6
93 101 10
93 103 10
93 104 7
93 105 3
93 106 10
93 107 10
93 108 4
93 109 6
93 110 10
93 113 7
93 114 1
93 116 8
93 117 4
93 118 10
93 119 10
93 121 10
93 122 5
93 123 6
93 124 1
93 126 8
93 127 2
93 128 10
93 132 5
93 134 9
93 135 7
93 138 10
93 139 3
93 140 2
93 142 2
93 143 10
93 145 1
93 146 4
93 147 8
93 148 7
93 150 8
93 151 6
93 154 10
93 155 7
93 156 1
93 157 1
93 158 9
93 161 3
93 162 5
93 163 7
93 164 10
93 165 1
93 167 9
93 168 4
93 170 2
93 171 6
93 172 5
93 177 9
93 178 2
93 179 10
93 181 2
93 182 1
93 183 9
93 184 10
93 186 3
93 188 2
93 189 7
93 191 9
93 194 4
93 195 7
93 196 8
93 198 8
93 200 1
93 202 1
93 203 1
93 204 10
93 206 5
93 207 4
93 208 8
93 209 8
93 210 2
93 212 1
93 215 5
93 216 8
93 217 5
93 218 10
93 219 10
93 221 2
93 222 5
93 223 5
93 227 8
93 229 4
93 230 4
93 233 1
93 235 2
93 236 8
93 238 7
93 239 10
93 240 9
93 241 8
93 242 2
93 244 1
93 245 9
93 246 6
93 248 8
93 249 4
93 250 1
93 251 3
93 252 1
93 253 8
93 254 8
93 255 3
93 257 7
93 258 3
93 260 8
93 261 5
93 263 10
93 264 2
93 265 3
93 266 4
93 268 3
93 269 5
93 270 9
93 271 10
93 272 8
93 274 1
93 275 10
93 276 5
93 277 4
93 281 5
93 282 9
93 285 4
93 286 10
93 288 1
93 290 4
93 291 9
93 292 7
93 293 9
93 294 7
93 296 3
93 297 4
93 298 3
93 300 2
94 96 10
94 98 1
94 100 4
94 101 1
94 102 1
94 103 8
94 105 5
94 106 4
94 107 1
94 108 6
94 110 4
94 111 1
94 114 2
94 115 9
94 116 4
94 117 5
94 118 10
94 119 4
94 120 5
94 123 7
94 124 6
94 125 6
94 126 4
94 128 7
94 129 4
94 131 2
94 133 7
94 135 1
94 136 10
94 137 7
94 138 4
94 139 1
94 140 7
94 141 5
94 144 7
94 145 10
94 146 9
94 147 1
94 149 8
94 150 6
94 152 6
94 154 3
94 155 10
94 156 3
94 157 4
94 158 1
94 159 6
94 160 4
94 161 2
94 162 9
94 163 10
94 167 2
94 169 8
94 170 3
94 171 4
94 172 4
94 177 6
94 178 2
94 179 5
94 180 6
94 181 3
94 182 8
94 185 2
94 186 5
94 187 2
94 188 9
94 189 8
94 190 3
94 191 6
94 192 2
94 193 9
94 194 2
94 195 1
94 196 1
94 199 7
94 200 7
94 201 5
94 202 8
94 204 2
94 205 2
94 206 3
94 207 6
94 208 5
94 209 10
94 210 2
94 211 7
94 212 1
94 213 8
94 214 10
94 215 1
94 217 2
94 218 6
94 219 2
94 221 6
94 223 9
94 224 1
94 225 9
94 226 9
94 227 2
94 228 10
94 230 4
94 231 2
94 236 8
94 237 8
94 239 6
94 240 2
94 242 8
94 243 4
94 244 2
94 245 5
94 246 5
94 249 6
94 250 4
94 251 6
94 252 6
94 254 7
94 257 1
94 259 6
94 260 8
94 261 9
94 262 1
94 263 1
94 264 9
94 265 10
94 266 4
94 267 9
94 268 2
94 270 1
94 272 2
94 274 9
94 275 6
94 276 8
94 277 4
94 279 10
94 280 2
94 283 9
94 284 2
94 285 9
94 286 3
94 288 5
94 289 9
94 291 7
94 292 3
94 294 4
94 295 4
94 296 6
94 297 5
94 298 3
94 299 1
94 300 6
95 96 3
95 97 5
95 98 10
95 99 5
95 103 9
95 106 1
95 107 9
95 108 5
95 109 8
95 110 4
95 112 9
95 113 4
95 114 8
95 115 9
95 116 9
95 117 1
95 118 7
95 120 1
95 121 7
95 122 5
95 123 2
95 124 2
95 126 2
95 127 5
95 131 8
95 132 1
95 133 2
95 134 4
95 137 9
95 139 1
95 140 5
95 143 7
95 144 1
95 145 6
95 146 9
95 148 4
95 149 2
95 150 1
95 152 9
95 153 6
95 154 6
95 157 8
95 158 3
95 159 9
95 160 7
95 161 10
95 162 2
95 163 1
95 165 9
95 167 8
95 168 1
95 170 8
95 172 2
95 174 10
95 175 10
95 176 4
95 179 9
95 180 7
95 181 5
95 182 4
95 184 8
95 185 5
95 186 3
95 189 7
95 190 1
95 192 1
95 193 5
95 195 6
95 197 8
95 198 5
95 199 8
95 200 7
95 201 7
95 202 6
95 207 5
95 209 10
95 211 5
95 212 9
95 215 9
95 216 4
95 217 9
95 218 10
95 219 8
95 223 1
95 224 2
95 225 8
95 226 4
95 228 6
95 229 2
95 230 10
95 231 9
95 232 1
95 234 10
95 236 10
95 239 5
95 240 6
95 242 10
95 244 8
95 247 2
95 248 8
95 249 6
95 250 7
95 251 9
95 252 5
95 253 10
95 255 9
95 256 4
95 257 4
95 258 7
95 261 9
95 263 7
95 264 3
95 266 8
95 267 7
95 269 10
95 270 6
95 271 1
95 272 4
95 273 2
95 274 9
95 276 10
95 277 5
95 279 9
95 281 3
95 282 9
95 283 4
95 284 3
95 285 1
95 286 10
95 288 10
95 289 8
95 290 5
95 291 2
95 293 5
95 294 6
95 295 3
95 297 4
95 298 9
95 299 4
95 300 10
96 98 7
96 99 6
96 101 10
96 102 1
96 103 6
96 104 6
96 105 8
96 106 6
96 109 2
96 111 4
96 113 1
96 115 8
96 116 10
96 117 1
96 118 8
96 119 3
96 120 6
96 121 1
96 122 2
96 124 8
96 125 5
96 126 1
96 127 9
96 130 10
96 131 9
96 132 7
96 135 9
96 137 4
96 138 4
96 139 5
96 140 6
96 141 6
96 144 1
96 145 7
96 146 9
96 147 1
96 148 10
96 149 10
96 150 2
96 151 4
96 153 7
96 154 4
96 155 4
96 156 8
96 159 1
96 161 7
96 164 4
96 165 10
96 166 1
96 167 4
96 168 7
96 169 3
96 171 2
96 172 4
96 173 10
96 174 1
96 175 10
96 176 1
96 178 10
96 179 4
96 180 4
96 181 7
96 183 9
96 184 9
96 185 3
96 186 4
96 187 9
96 188 3
96 189 2
96 190 8
96 193 9
96 198 7
96 199 10
96 200 2
96 201 4
96 202 10
96 203 1
96 204 3
96 206 9
96 207 1
96 208 6
96 209 5
96 211 4
96 212 1
96 213 2
96 216 2
96 217 9
96 222 10
96 223 8
96 224 5
96 225 5
96 226 2
96 227 1
96 228 3
96 230 8
96 233 3
96 235 2
96 236 1
96 237 9
96 238 4
96 239 1
96 241 2
96 242 1
96 243 1
96 245 6
96 246 10
96 248 7
96 251 10
96 252 10
96 253 10
96 254 9
96 255 7
96 256 2
96 257 6
96 258 9
96 259 7
96 260 5
96 262 7
96 263 7
96 265 7
96 267 2
96 268 9
96 269 9
96 270 6
96 271 8
96 273 9
96 275 5
96 276 1
96 277 3
96 279 4
96 280 10
96 281 4
96 283 5
96 284 2
96 286 3
96 287 7
96 289 1
96 290 2
96 293 5
96 294 9
96 295 2
96 297 3
96 299 3
96 300 5
97 98 10
97 99 1
97 100 6
97 103 6
97 104 6
97 105 6
97 106 1
97 107 1
97 108 6
97 110 3
97 111 5
97 112 10
97 114 2
97 115 1
97 116 3
97 117 2
97 118 8
97 119 5
97 121 4
97 123 2
97 124 10
97 125 2
97 127 9
97 128 5
97 133 9
97 134 10
97 135 6
97 137 4
97 138 8
97 139 9
97 140 6
97 141 1
97 142 10
97 143 10
97 144 8
97 145 3
97 146 6
97 148 9
97 149 1
97 150 4
97 151 7
97 152 2
97 153 7
97 155 10
97 156 10
97 157 1
97 159 3
97 160 4
97 161 6
97 162 4
97 163 8
97 164 6
97 165 7
97 166 1
97 167 9
97 168 6
97 170 8
97 171 9
97 172 2
97 173 8
97 174 8
97 175 6
97 176 9
97 179 7
97 180 2
97 182 8
97 183 7
97 184 5
97 185 5
97 186 6
97 187 2
97 189 1
97 190 2
97 191 6
97 192 6
97 193 2
97 194 10
97 195 1
97 196 9
97 197 4
97 198 2
97 201 2
97 202 6
97 203 4
97 206 6
97 208 2
97 211 1
97 212 2
97 213 7
97 215 9
97 216 8
97 217 5
97 220 8
97 221 3
97 222 4
97 223 5
97 225 1
97 228 3
97 229 10
97 230 9
97 231 3
97 233 8
97 236 9
97 237 7
97 238 2
97 240 2
97 242 8
97 243 2
97 244 6
97 246 4
97 247 7
97 249 3
97 250 5
97 251 6
97 252 3
97 253 2
97 254 5
97 256 6
97 257 10
97 259 7
97 260 3
97 261 8
97 263 7
97 265 2
97 266 2
97 268 8
97 270 7
97 273 8
97 274 9
97 277 8
97 278 3
97 280 5
97 281 2
97 282 3
97 284 9
97 285 3
97 286 2
97 288 6
97 290 1
97 291 1
97 292 10
97 293 4
97 294 1
97 295 3
97 296 9
97 298 5
97 299 3
97 300 10
98 99 5
98 100 6
98 101 8
98 102 5
98 104 2
98 105 3
98 106 9
98 108 7
98 109 8
98 110 10
98 111 1
98 112 7
98 114 6
98 116 10
98 117 7
98 118 1
98 119 4
98 120 5
98 121 5
98 122 8
98 124 9
98 127 10
98 128 4
98 130 7
98 131 7
98 132 9
98 133 7
98 134 4
98 135 7
98 136 5
98 137 5
98 138 8
98 140 1
98 141 4
98 142 10
98 144 3
98 145 10
98 147 7
98 148 1
98 149 6
98 155 3
98 156 5
98 157 10
98 159 4
98 160 5
98 161 4
98 162 2
98 163 6
98 165 2
98 167 6
98 168 7
98 170 4
98 171 10
98 172 1
98 173 3
98 176 9
98 177 8
98 178 2
98 179 8
98 181 9
98 182 2
98 184 5
98 185 2
98 186 3
98 190 2
98 193 8
98 197 6
98 198 2
98 200 9
98 202 8
98 203 6
98 204 9
98 205 8
98 208 1
98 209 6
98 210 1
98 211 5
98 212 5
98 213 9
98 215 4
98 216 7
98 218 1
98 219 5
98 220 7
98 222 5
98 223 1
98 224 3
98 225 3
98 228 7
98 229 1
98 230 9
98 231 3
98 232 2
98 233 3
98 236 5
98 237 9
98 238 5
98 240 9
98 242 4
98 243 3
98 246 4
98 248 4
98 249 1
98 250 8
98 251 9
98 253 4
98 254 9
98 255 6
98 256 4
98 257 6
98 258 7
98 259 8
98 260 6
98 261 1
98 264 1
98 265 9
98 266 6
98 268 7
98 269 5
98 270 4
98 271 6
98 272 1
98 273 10
98 275 1
98 277 3
98 279 9
98 280 1
98 281 7
98 282 5
98 284 10
98 285 6
98 286 1
98 290 4
98 291 5
98 292 5
98 295 9
98 296 7
98 299 4
98 300 3
99 100 5
99 101 10
99 102 8
99 103 4
99 104 3
99 106 10
99 107 1
99 109 5
99 110 10
99 111 3
99 113 8
99 115 2
99 116 5
99 117 2
99 118 1
99 119 4
99 120 2
99 122 3
99 123 5
99 124 2
99 125 2
99 126 2
99 127 8
99 128 5
99 129 10
99 130 9
99 131 1
99 132 5
99 133 4
99 134 3
99 135 7
99 137 6
99 141 10
99 142 9
99 143 4
99 144 7
99 145 10
99 146 6
99 147 1
99 149 2
99 150 5
99 151 8
99 152 3
99 153 5
99 154 6
99 155 3
99 157 10
99 158 9
99 159 4
99 160 4
99 161 8
99 162 3
99 163 1
99 165 1
99 167 5
99 168 10
99 172 3
99 174 9
99 175 10
99 176 8
99 177 2
99 178 9
99 179 6
99 180 10
99 181 5
99 182 8
99 185 2
99 187 6
99 189 8
99 190 6
99 191 2
99 192 6
99 194 6
99 196 5
99 198 5
99 199 9
99 200 4
99 202 4
99 206 4
99 207 1
99 208 3
99 209 6
99 210 4
99 211 10
99 212 6
99 214 8
99 215 6
99 218 4
99 219 3
99 220 9
99 221 3
99 222 3
99 226 6
99 227 2
99 228 7
99 231 3
99 233 1
99 234 2
99 235 3
99 236 1
99 237 4
99 238 1
99 239 2
99 241 8
99 244 7
99 246 2
99 247 5
99 248 7
99 249 1
99 250 6
99 251 2
99 253 3
99 254 6
99 255 7
99 256 4
99 257 1
99 258 2
99 259 5
99 260 2
99 261 1
99 263 5
99 265 5
99 266 10
99 268 1
99 269 2
99 270 9
99 272 4
99 273 4
99 274 10
99 276 10
99 277 10
99 278 6
99 279 9
99 280 7
99 282 6
99 283 8
99 284 8
99 285 7
99 286 5
99 287 3
99 288 7
99 290 8
99 293 1
99 294 1
99 296 4
99 297 4
99 298 2
99 300 2
100 101 3
100 105 10
100 106 1
100 108 4
100 110 5
100 112 8
100 113 4
100 115 8
100 116 9
100 117 8
100 118 10
100 119 3
100 120 7
100 124 8
100 125 9
100 126 10
100 127 4
100 128 5
100 130 1
100 131 10
100 132 8
100 133 3
100 134 4
100 137 10
100 140 8
100 141 10
100 142 8
100 143 10
100 145 8
100 146 9
100 148 7
100 150 8
100 152 10
100 153 10
100 154 4
100 157 5
100 163 10
100 165 7
100 167 5
100 168 8
100 170 4
100 171 7
100 175 9
100 178 10
100 179 5
100 180 4
100 181 1
100 182 5
100 185 4
100 186 9
100 187 2
100 189 1
100 190 4
100 191 5
100 192 6
100 193 10
100 194 2
100 195 9
100 196 5
100 198 4
100 199 9
100 200 5
100 201 6
100 203 1
100 204 4
100 206 9
100 207 1
100 209 4
100 210 9
100 211 1
100 212 3
100 213 7
100 216 6
100 218 4
100 219 2
100 221 4
100 222 2
100 224 4
100 225 1
100 226 7
100 227 3
100 228 8
100 231 7
100 233 5
100 234 1
100 236 6
100 237 1
100 238 9
100 239 1
100 240 6
100 242 8
100 243 1
100 244 5
100 245 6
100 246 2
100 250 6
100 252 2
100 254 8
100 255 8
100 256 2
100 257 2
100 259 5
100 261 4
100 263 2
100 264 1
100 265 2
100 267 4
100 269 4
100 270 6
100 271 8
100 274 3
100 275 10
100 276 2
100 277 10
100 278 3
100 279 1
100 281 9
100 284 10
100 285 2
100 287 7
100 288 9
100 290 5
100 291 2
100 292 2
100 294 8
100 296 2
100 298 7
100 299 6
100 300 2
101 102 8
101 103 9
101 104 9
101 105 10
101 106 3
101 107 3
101 108 6
101 109 7
101 110 1
101 111 9
101 112 4
101 113 2
101 114 4
101 115 5
101 116 3
101 118 7
101 119 9
101 120 6
101 121 8
101 122 9
101 123 6
101 125 5
101 126 6
101 127 4
101 128 2
101 129 9
101 130 1
101 131 2
101 132 1
101 133 1
101 134 2
101 135 6
101 137 6
101 138 1
101 140 2
101 141 3
101 142 8
101 143 8
101 146 3
101 148 3
101 149 3
101 151 2
101 152 8
101 153 6
101 154 7
101 155 8
101 157 10
101 160 7
101 162 3
101 163 1
101 165 8
101 166 7
101 168 6
101 170 5
101 172 10
101 173 8
101 174 10
101 177 10
101 178 3
101 179 7
101 180 5
101 181 2
101 182 7
101 183 3
101 184 3
101 186 8
101 187 1
101 188 6
101 189 10
101 190 1
101 191 4
101 192 7
101 193 5
101 194 8
101 195 10
101 196 2
101 197 8
101 199 10
101 200 8
101 201 2
101 202 7
101 204 2
101 206 6
101 207 5
101 208 7
101 209 1
101 211 2
101 213 1
101 214 1
101 215 5
101 219 3
101 221 3
101 222 5
101 223 10
101 228 1
101 230 2
101 232 1
101 233 7
101 234 8
101 238 8
101 239 7
101 240 10
101 241 1
101 242 6
101 243 4
101 244 3
101 245 2
101 246 7
101 248 4
101 249 10
101 251 7
101 252 3
101 254 1
101 255 2
101 256 10
101 257 8
101 258 3
101 259 3
101 261 6
101 262 2
101 263 8
101 264 1
101 265 7
101 266 8
101 268 9
101 269 7
101 271 7
101 272 6
101 273 5
101 274 7
101 276 5
101 277 4
101 278 9
101 279 9
101 281 3
101 282 6
101 284 5
101 285 5
101 290 3
101 292 9
101 294 8
101 295 9
101 297 6
101 299 10
101 300 6
102 104 5
102 107 6
102 108 9
102 109 9
102 112 1
102 114 3
102 116 1
102 118 7
102 119 8
102 120 3
102 123 3
102 125 3
102 126 9
102 128 10
102 129 1
102 130 7
102 131 10
102 133 8
102 134 5
102 136 10
102 137 5
102 138 1
102 139 3
102 140 6
102 141 2
102 142 1
102 143 1
102 144 10
102 145 4
102 149 4
102 150 2
102 151 6
102 152 8
102 154 4
102 155 7
102 157 7
102 158 3
102 159 9
102 160 7
102 161 5
102 162 10
102 164 9
102 167 3
102 170 6
102 171 5
102 172 8
102 174 7
102 176 5
102 177 10
102 179 2
102 181 7
102 182 3
102 183 1
102 185 10
102 189 8
102 190 8
102 191 7
102 192 1
102 194 2
102 195 10
102 196 2
102 197 9
102 198 1
102 199 10
102 200 2
102 201 4
102 204 6
102 205 10
102 206 5
102 207 6
102 211 4
102 212 8
102 213 10
102 214 5
102 215 8
102 216 8
102 217 9
102 218 7
102 220 4
102 221 3
102 222 4
102 223 3
102 224 10
102 225 10
102 226 7
102 227 6
102 230 7
102 231 1
102 235 3
102 236 2
102 237 6
102 238 7
102 239 1
102 240 8
102 241 8
102 242 7
102 243 5
102 246 1
102 247 6
102 249 8
102 250 2
102 251 7
102 252 2
102 254 6
102 255 9
102 256 7
102 257 1
102 259 6
102 260 4
102 263 10
102 264 1
102 266 8
102 267 3
102 268 3
102 270 9
102 271 5
102 272 3
102 273 5
102 274 9
102 275 1
102 276 3
102 277 9
102 278 4
102 281 7
102 282 5
102 285 5
102 286 2
102 287 9
102 288 2
102 289 3
102 290 1
102 291 5
102 292 6
102 296 7
102 297 2
102 298 3
102 299 9
102 300 2
103 104 1
103 106 2
103 108 2
103 110 1
103 111 1
103 113 7
103 114 3
103 116 10
103 117 9
103 118 10
103 119 2
103 120 6
103 122 4
103 123 2
103 124 3
103 125 2
103 128 7
103 130 6
103 131 3
103 133 5
103 134 6
103 135 3
103 136 5
103 137 10
103 138 5
103 139 3
103 140 5
103 141 4
103 144 2
103 145 6
103 146 2
103 148 10
103 151 8
103 152 8
103 153 1
103 154 1
103 155 7
103 156 9
103 158 5
103 159 7
103 160 9
103 162 3
103 163 7
103 164 9
103 165 10
103 166 8
103 167 3
103 170 7
103 171 9
103 172 6
103 175 2
103 176 10
103 181 3
103 182 8
103 185 10
103 186 2
103 189 10
103 191 4
103 192 3
103 193 1
103 194 8
103 195 6
103 196 10
103 197 7
103 198 7
103 199 2
103 200 4
103 203 4
103 204 1
103 205 3
103 206 1
103 208 4
103 209 9
103 210 8
103 211 6
103 212 7
103 213 2
103 214 4
103 215 2
103 216 9
103 217 8
103 220 10
103 221 5
103 222 6
103 224 8
103 225 1
103 226 7
103 227 1
103 228 5
103 229 8
103 230 10
103 231 6
103 232 5
103 233 4
103 234 6
103 235 6
103 236 2
103 237 10
103 238 10
103 240 5
103 242 1
103 243 2
103 246 10
103 247 4
103 248 10
103 249 5
103 251 7
103 252 5
103 253 9
103 255 1
103 256 9
103 257 3
103 258 1
103 259 1
103 260 5
103 261 4
103 262 2
103 264 1
103 265 10
103 267 1
103 268 10
103 269 1
103 271 2
103 272 7
103 273 3
103 274 1
103 275 3
103 276 3
103 278 7
103 280 3
103 282 8
103 283 6
103 284 3
103 285 10
103 286 1
103 287 3
103 288 3
103 289 7
103 290 3
103 291 3
103 292 2
103 293 8
103 295 5
103 297 2
103 298 2
104 107 3
104 108 1
104 109 10
104 110 1
104 112 3
104 114 10
104 116 2
104 118 6
104 119 6
104 120 10
104 121 4
104 122 10
104 123 10
104 125 5
104 128 3
104 129 1
104 130 3
104 131 9
104 132 3
104 133 8
104 134 10
104 135 3
104 138 9
104 140 8
104 141 5
104 143 9
104 144 4
104 147 9
104 148 4
104 149 3
104 151 10
104 152 1
104 153 4
104 154 4
104 155 4
104 156 6
104 158 4
104 159 2
104 160 8
104 161 7
104 162 3
104 166 7
104 167 7
104 168 2
104 169 8
104 172 4
104 173 5
104 174 2
104 175 10
104 176 5
104 177 4
104 178 5
104 179 9
104 180 9
104 182 4
104 183 4
104 184 5
104 185 4
104 186 9
104 187 9
104 190 3
104 191 9
104 192 3
104 193 2
104 194 3
104 200 6
104 201 3
104 203 1
104 204 8
104 205 1
104 208 5
104 209 9
104 210 2
104 211 7
104 215 7
104 216 1
104 219 7
104 220 1
104 221 1
104 223 5
104 225 4
104 226 3
104 229 4
104 231 3
104 234 1
104 235 2
104 236 10
104 237 7
104 238 3
104 239 2
104 240 3
104 241 3
104 242 7
104 243 9
104 245 9
104 246 10
104 247 10
104 249 1
104 250 8
104 252 3
104 254 1
104 255 8
104 256 5
104 257 1
104 258 6
104 261 6
104 262 10
104 264 6
104 265 9
104 266 5
104 267 10
104 270 10
104 271 6
104 273 8
104 274 4
104 275 5
104 276 2
104 277 9
104 278 4
104 279 5
104 281 9
104 282 1
104 283 7
104 284 8
104 287 6
104 288 3
104 291 8
104 293 8
104 294 2
104 295 7
104 296 9
104 297 7
104 298 4
104 299 3
105 106 10
105 110 1
105 111 1
105 116 3
105 117 1
105 118 6
105 119 8
105 120 6
105 122 9
105 123 9
105 124 2
105 125 7
105 126 6
105 127 10
105 129 6
105 130 10
105 131 6
105 132 6
105 133 7
105 134 10
105 135 4
105 136 10
105 137 4
105 138 7
105 139 6
105 140 1
105 142 6
105 145 10
105 146 2
105 147 1
105 148 3
105 149 10
105 150 5
105 151 7
105 155 8
105 157 2
105 158 1
105 159 7
105 160 3
105 161 4
105 163 7
105 164 9
105 165 9
105 167 10
105 171 1
105 172 8
105 173 1
105 174 2
105 176 6
105 178 4
105 179 2
105 180 4
105 181 2
105 182 9
105 183 10
105 184 5
105 186 4
105 187 3
105 188 1
105 189 5
105 190 6
105 194 6
105 195 10
105 196 1
105 198 6
105 202 2
105 203 10
105 204 3
105 206 6
105 207 8
105 208 3
105 212 4
105 214 8
105 218 7
105 220 5
105 221 1
105 222 7
105 223 8
105 225 10
105 226 10
105 227 8
105 228 8
105 229 3
105 230 1
105 231 3
105 232 1
105 233 1
105 234 2
105 235 8
105 236 4
105 237 1
105 238 7
105 239 8
105 242 2
105 244 1
105 245 2
105 246 2
105 247 3
105 248 2
105 249 7
105 250 3
105 252 6
105 253 5
105 254 10
105 256 2
105 257 2
105 258 9
105 260 10
105 261 10
105 262 8
105 263 5
105 264 10
105 266 3
105 267 5
105 268 8
105 269 1
105 270 1
105 271 9
105 272 7
105 273 9
105 274 7
105 275 4
105 276 4
105 277 6
105 278 7
105 279 10
105 281 7
105 282 9
105 283 9
105 284 1
105 285 2
105 286 1
105 288 2
105 289 8
105 291 7
105 292 5
105 293 1
105 294 1
105 295 5
105 296 6
105 298 9
105 299 9
105 300 2
106 107 9
106 108 3
106 109 3
106 110 9
106 111 5
106 113 4
106 115 5
106 116 2
106 117 10
106 118 9
106 121 6
106 122 1
106 123 6
106 126 2
106 127 8
106 128 10
106 130 5
106 131 10
106 133 5
106 136 1
106 137 6
106 139 6
106 140 4
106 143 3
106 145 5
106 146 1
106 147 8
106 149 2
106 151 10
106 152 1
106 153 1
106 154 10
106 155 4
106 156 5
106 157 6
106 158 9
106 160 5
106 161 7
106 162 4
106 163 9
106 166 8
106 168 5
106 170 7
106 172 8
106 173 2
106 174 7
106 175 5
106 176 10
106 177 2
106 178 3
106 179 9
106 180 9
106 181 3
106 182 4
106 183 7
106 184 3
106 186 7
106 187 1
106 188 10
106 189 8
106 190 9
106 191 8
106 192 5
106 193 9
106 195 8
106 196 6
106 197 10
106 198 1
106 199 2
106 203 6
106 204 6
106 206 5
106 207 9
106 208 8
106 211 9
106 212 8
106 213 6
106 214 7
106 217 1
106 218 9
106 219 2
106 220 8
106 222 4
106 223 5
106 224 2
106 226 2
106 227 3
106 228 3
106 229 4
106 231 6
106 232 4
106 234 3
106 235 5
106 236 8
106 237 6
106 238 2
106 239 8
106 240 10
106 241 10
106 242 6
106 243 1
106 244 10
106 246 3
106 247 3
106 248 5
106 251 6
106 252 1
106 254 1
106 255 10
106 256 1
106 257 2
106 258 5
106 259 6
106 261 5
106 262 6
106 263 1
106 264 5
106 265 1
106 267 1
106 268 3
106 269 8
106 270 3
106 271 1
106 274 9
106 275 8
106 277 1
106 278 5
106 279 5
106 281 4
106 282 9
106 284 8
106 285 5
106 286 2
106 287 8
106 288 4
106 291 9
106 292 1
106 294 6
106 296 7
106 297 10
106 300 10
107 108 3
107 109 3
107 110 1
107 111 9
107 112 3
107 113 9
107 115 5
107 118 9
107 119 1
107 120 1
107 124 8
107 125 9
107 127 6
107 128 3
107 129 6
107 130 5
107 131 3
107 132 5
107 133 3
107 135 5
107 136 2
107 138 5
107 139 1
107 140 10
107 141 10
107 142 7
107 143 4
107 145 2
107 146 5
107 147 9
107 149 7
107 150 7
107 151 7
107 154 4
107 155 10
107 156 2
107 157 2
107 158 9
107 159 5
107 161 2
107 162 1
107 163 7
107 164 10
107 165 4
107 166 8
107 168 10
107 169 7
107 172 5
107 173 2
107 174 6
107 176 3
107 178 8
107 179 7
107 181 8
107 182 8
107 183 7
107 184 2
107 185 1
107 187 7
107 189 4
107 190 1
107 192 9
107 193 3
107 194 1
107 195 3
107 196 3
107 197 1
107 198 8
107 199 1
107 200 10
107 201 9
107 202 3
107 203 1
107 204 9
107 205 1
107 207 6
107 209 5
107 211 2
107 212 9
107 213 8
107 216 3
107 218 4
107 219 5
107 220 3
107 221 4
107 222 8
107 225 9
107 226 5
107 227 2
107 228 10
107 229 9
107 230 4
107 231 4
107 232 4
107 236 5
107 239 7
107 240 1
107 241 8
107 242 3
107 243 3
107 244 9
107 245 2
107 246 10
107 248 2
107 249 10
107 250 2
107 255 10
107 256 9
107 257 10
107 260 6
107 261 8
107 262 3
107 263 6
107 264 7
107 265 2
107 266 1
107 268 8
107 269 7
107 270 2
107 271 6
107 272 5
107 273 5
107 274 4
107 275 2
107 278 3
107 279 1
107 280 9
107 281 10
107 283 10
107 284 4
107 285 2
107 286 9
107 289 3
107 290 7
107 291 3
107 292 7
107 293 4
107 294 9
107 295 10
107 297 6
107 298 7
107 300 7
108 109 2
108 110 7
108 111 9
108 112 10
108 114 9
108 115 4
108 116 4
108 117 7
108 118 10
108 119 8
108 120 1
108 121 4
108 122 6
108 123 2
108 126 10
108 128 1
108 130 9
108 131 2
108 132 3
108 134 2
108 137 8
108 138 5
108 139 8
108 140 7
108 142 4
108 143 3
108 144 6
108 146 4
108 147 6
108 148 4
108 149 10
108 152 6
108 153 7
108 154 4
108 155 4
108 156 7
108 157 1
108 158 1
108 160 3
108 162 9
108 163 9
108 165 3
108 168 8
108 169 1
108 170 2
108 171 2
108 172 2
108 174 10
108 176 4
108 177 6
108 179 9
108 180 1
108 182 2
108 183 4
108 184 6
108 185 9
108 186 1
108 187 3
108 188 4
108 189 1
108 190 10
108 193 6
108 194 8
108 195 10
108 197 7
108 199 2
108 200 10
108 202 2
108 203 7
108 204 8
108 205 8
108 206 8
108 207 1
108 208 10
108 210 3
108 211 1
108 214 3
108 215 3
108 216 5
108 218 6
108 219 10
108 220 10
108 221 6
108 222 9
108 223 4
108 224 4
108 225 2
108 226 7
108 230 10
108 234 4
108 235 4
108 236 2
108 239 6
108 240 1
108 243 6
108 245 2
108 247 3
108 248 9
108 251 9
108 255 3
108 256 2
108 257 1
108 258 2
108 259 9
108 261 6
108 262 10
108 265 7
108 266 9
108 267 2
108 268 1
108 269 10
108 271 5
108 272 3
108 274 2
108 275 8
108 276 7
108 277 9
108 278 8
108 280 6
108 281 9
108 282 7
108 283 5
108 284 10
108 285 9
108 286 9
108 287 2
108 288 1
108 289 2
108 291 8
108 294 7
108 297 9
108 299 4
108 300 9
109 110 6
109 112 6
109 113 5
109 114 5
109 115 6
109 116 2
109 117 10
109 118 2
109 119 8
109 120 2
109 121 9
109 123 3
109 124 5
109 125 8
109 126 8
109 128 7
109 129 5
109 130 4
109 131 2
109 134 8
109 135 10
109 136 5
109 137 1
109 138 1
109 139 1
109 141 5
109 142 3
109 143 8
109 145 4
109 148 9
109 149 1
109 151 10
109 152 1
109 153 2
109 154 8
109 155 6
109 157 1
109 158 7
109 159 10
109 160 8
109 162 3
109 163 2
109 164 7
109 166 7
109 167 5
109 169 3
109 170 4
109 171 1
109 172 3
109 174 9
109 177 5
109 178 3
109 179 5
109 180 10
109 181 6
109 184 4
109 185 8
109 187 8
109 188 8
109 190 3
109 191 4
109 192 6
109 196 4
109 198 1
109 200 5
109 201 7
109 202 8
109 203 8
109 204 10
109 206 4
109 207 6
109 208 1
109 209 10
109 212 6
109 213 5
109 214 10
109 215 2
109 216 1
109 217 5
109 218 5
109 220 5
109 221 9
109 222 4
109 224 5
109 226 6
109 228 4
109 229 2
109 230 7
109 231 3
109 232 5
109 233 2
109 234 4
109 235 8
109 238 9
109 239 5
109 242 4
109 244 8
109 245 6
109 246 10
109 247 6
109 249 8
109 251 6
109 253 3
109 254 7
109 255 2
109 256 6
109 257 9
109 259 2
109 260 5
109 261 5
109 264 6
109 265 9
109 266 5
109 267 3
109 268 2
109 269 5
109 272 4
109 273 3
109 276 7
109 279 9
109 280 10
109 282 4
109 284 7
109 285 8
109 286 1
109 290 2
109 291 2
109 292 3
109 293 8
109 294 9
109 295 9
109 297 9
110 111 3
110 112 10
110 113 10
110 116 6
110 117 5
110 118 1
110 121 3
110 122 3
110 124 3
110 126 5
110 128 2
110 129 3
110 131 7
110 132 9
110 134 3
110 137 4
110 138 1
110 141 7
110 142 5
110 145 3
110 148 9
110 150 7
110 151 5
110 152 9
110 153 5
110 154 4
110 155 6
110 158 6
110 159 4
110 160 4
110 163 1
110 164 4
110 165 8
110 166 2
110 167 6
110 169 7
110 170 10
110 173 9
110 175 3
110 176 1
110 177 7
110 178 7
110 180 9
110 181 6
110 182 5
110 183 7
110 184 2
110 187 10
110 188 8
110 189 9
110 191 6
110 192 1
110 193 9
110 195 1
110 196 10
110 198 3
110 199 2
110 200 9
110 201 5
110 202 8
110 203 10
110 204 4
110 205 10
110 206 10
110 208 3
110 210 10
110 211 5
110 213 9
110 214 9
110 217 10
110 218 7
110 219 9
110 222 9
110 224 1
110 225 8
110 227 2
110 228 10
110 229 6
110 230 10
110 231 7
110 232 4
110 233 5
110 234 4
110 236 4
110 237 6
110 238 3
110 239 5
110 241 2
110 242 8
110 246 1
110 248 3
110 249 3
110 251 9
110 253 10
110 255 4
110 256 10
110 257 5
110 258 5
110 259 5
110 260 6
110 261 9
110 262 8
110 263 6
110 264 9
110 265 2
110 266 10
110 267 6
110 268 9
110 269 8
110 271 2
110 274 6
110 275 6
110 277 3
110 278 2
110 279 6
110 281 4
110 282 1
110 284 3
110 286 2
110 287 2
110 289 7
110 290 9
110 292 8
110 293 2
110 294 5
110 296 2
110 297 2
110 298 4
110 300 2
111 112 6
111 113 8
111 114 7
111 115 2
111 116 1
111 118 1
111 119 4
111 120 8
111 121 1
111 122 4
111 123 2
111 124 6
111 125 9
111 126 9
111 127 3
111 129 1
111 130 6
111 131 2
111 132 8
111 133 9
111 134 2
111 135 7
111 136 1
111 137 2
111 138 7
111 139 8
111 140 3
111 142 10
111 143 7
111 144 4
111 145 2
111 146 6
111 147 4
111 148 9
111 149 5
111 150 3
111 151 4
111 153 9
111 154 2
111 155 1
111 156 7
111 159 9
111 160 7
111 162 10
111 163 8
111 165 3
111 167 10
111 169 7
111 170 1
111 171 5
111 172 4
111 176 2
111 178 8
111 180 3
111 184 5
111 185 1
111 186 1
111 187 9
111 188 3
111 189 10
111 190 4
111 191 10
111 192 5
111 195 2
111 197 5
111 198 8
111 200 10
111 201 5
111 203 4
111 206 8
111 207 9
111 208 1
111 209 10
111 210 7
111 211 7
111 212 10
111 214 8
111 215 4
111 216 1
111 217 2
111 222 10
111 223 10
111 224 2
111 225 6
111 226 2
111 227 10
111 228 10
111 229 5
111 230 3
111 232 7
111 233 8
111 234 7
111 238 5
111 242 1
111 244 9
111 245 1
111 246 1
111 247 1
111 249 4
111 251 2
111 252 2
111 254 7
111 255 10
111 256 6
111 260 5
111 261 10
111 263 6
111 264 4
111 265 5
111 268 4
111 270 2
111 271 10
111 273 8
111 274 4
111 276 3
111 277 10
111 278 2
111 279 5
111 280 10
111 281 8
111 282 7
111 283 2
111 285 8
111 286 3
111 288 6
111 290 4
111 292 10
111 293 7
111 295 6
111 296 4
111 297 3
111 298 7
111 300 1
112 113 4
112 116 7
112 117 8
112 118 6
112 119 2
112 120 7
112 121 9
112 122 4
112 123 9
112 124 4
112 125 9
112 126 5
112 127 4
112 128 10
112 129 5
112 130 9
112 132 8
112 133 10
112 135 7
112 137 10
112 138 10
112 139 8
112 140 1
112 144 6
112 145 7
112 146 1
112 147 1
112 149 5
112 150 10
112 151 5
112 152 7
112 154 7
112 155 6
112 156 7
112 158 7
112 160 9
112 166 7
112 167 3
112 168 2
112 169 2
112 171 7
112 172 5
112 173 8
112 175 5
112 176 4
112 178 10
112 179 7
112 182 6
112 183 9
112 184 2
112 185 9
112 186 8
112 187 1
112 188 7
112 190 2
112 191 10
112 192 6
112 194 5
112 195 8
112 199 7
112 201 1
112 203 10
112 205 5
112 206 3
112 207 10
112 208 6
112 210 4
112 212 4
112 215 5
112 216 10
112 217 5
112 218 10
112 220 7
112 221 10
112 222 4
112 225 8
112 226 1
112 227 6
112 228 4
112 229 4
112 231 6
112 233 5
112 234 1
112 235 8
112 236 6
112 238 1
112 239 2
112 240 10
112 241 9
112 242 10
112 243 2
112 247 4
112 248 7
112 249 5
112 251 7
112 252 4
112 253 10
112 254 4
112 257 8
112 258 4
112 259 2
112 261 2
112 262 6
112 265 10
112 266 4
112 267 8
112 268 4
112 269 4
112 270 2
112 271 2
112 272 10
112 275 6
112 276 5
112 278 9
112 281 9
112 282 4
112 283 4
112 284 8
112 285 5
112 286 2
112 292 1
112 293 9
112 294 5
112 295 4
112 297 10
112 300 10
113 114 10
113 116 2
113 117 8
113 119 5
113 120 6
113 121 1
113 122 6
113 124 5
113 125 6
113 126 7
113 128 8
113 129 9
113 131 1
113 132 9
113 134 2
113 135 5
113 136 2
113 137 3
113 139 8
113 140 1
113 143 6
113 144 3
113 145 7
113 146 2
113 148 7
113 149 9
113 150 7
113 151 5
113 152 4
113 153 6
113 155 10
113 156 7
113 157 8
113 158 6
113 159 1
113 160 10
113 161 10
113 162 2
113 163 3
113 167 5
113 168 3
113 169 1
113 170 4
113 172 8
113 173 6
113 175 2
113 177 7
113 178 6
113 179 2
113 180 5
113 182 10
113 183 8
113 184 5
113 186 6
113 187 9
113 188 8
113 189 7
113 190 9
113 193 2
113 195 5
113 196 4
113 197 4
113 198 8
113 199 5
113 204 8
113 205 4
113 206 9
113 207 5
113 208 3
113 210 7
113 211 5
113 212 2
113 215 8
113 216 8
113 217 8
113 218 3
113 219 9
113 220 3
113 221 1
113 222 7
113 223 2
113 224 9
113 225 7
113 226 7
113 227 8
113 228 5
113 229 1
113 231 2
113 234 7
113 236 1
113 237 10
113 238 9
113 239 3
113 240 9
113 241 4
113 243 7
113 244 10
113 245 2
113 247 5
113 248 9
113 249 6
113 250 6
113 251 8
113 253 10
113 254 3
113 255 9
113 257 1
113 258 6
113 259 1
113 260 6
113 261 7
113 262 3
113 265 3
113 266 1
113 267 9
113 268 9
113 269 2
113 270 2
113 271 1
113 272 8
113 273 5
113 275 8
113 276 6
113 277 8
113 279 7
113 280 1
113 282 7
113 283 6
113 284 6
113 287 10
113 288 8
113 290 9
113 291 1
113 292 4
113 295 8
113 296 2
113 297 7
113 298 1
113 300 8
114 116 10
114 117 1
114 118 3
114 119 1
114 120 3
114 121 6
114 122 10
114 123 1
114 124 8
114 125 2
114 126 7
114 127 5
114 128 3
114 129 10
114 130 3
114 131 2
114 132 3
114 133 7
114 136 7
114 137 7
114 139 8
114 140 7
114 141 9
114 144 3
114 145 3
114 146 8
114 147 2
114 148 5
114 150 1
114 151 4
114 153 6
114 154 9
114 155 5
114 156 8
114 158 6
114 162 8
114 163 2
114 167 4
114 170 2
114 171 7
114 172 2
114 175 5
114 176 1
114 177 10
114 179 10
114 180 5
114 182 6
114 185 3
114 186 3
114 187 4
114 188 5
114 190 3
114 192 5
114 195 5
114 196 7
114 199 3
114 200 3
114 204 3
114 205 10
114 207 9
114 208 2
114 210 8
114 211 5
114 212 6
114 214 9
114 215 7
114 216 3
114 217 7
114 221 5
114 224 1
114 225 6
114 226 7
114 227 7
114 228 5
114 232 7
114 233 8
114 234 8
114 235 6
114 236 10
114 237 3
114 238 4
114 239 5
114 241 1
114 242 1
114 243 1
114 245 6
114 246 8
114 247 10
114 248 5
114 249 7
114 250 4
114 251 3
114 252 5
114 253 2
114 254 10
114 257 5
114 258 8
114 260 9
114 261 3
114 262 1
114 263 5
114 266 3
114 267 6
114 268 6
114 269 2
114 270 5
114 271 7
114 272 7
114 273 1
114 274 5
114 278 8
114 280 4
114 281 4
114 282 3
114 283 2
114 284 6
114 285 3
114 286 10
114 287 3
114 288 4
114 289 1
114 292 8
114 293 10
114 295 7
114 296 3
114 297 1
114 298 9
114 299 8
115 116 10
115 117 8
115 118 7
115 119 9
115 120 9
115 126 1
115 127 6
115 128 1
115 130 10
115 131 10
115 132 7
115 133 9
115 135 5
115 136 1
115 137 4
115 139 10
115 142 2
115 143 7
115 147 8
115 148 3
115 149 3
115 151 10
115 153 2
115 154 3
115 156 6
115 157 3
115 158 6
115 159 4
115 160 7
115 161 2
115 162 5
115 163 7
115 164 5
115 165 4
115 167 1
115 168 10
115 170 9
115 171 1
115 174 9
115 176 8
115 179 6
115 181 8
115 182 1
115 183 1
115 184 2
115 185 7
115 186 7
115 188 3
115 189 2
115 192 3
115 193 1
115 194 2
115 195 1
115 196 1
115 198 4
115 199 2
115 200 3
115 201 10
115 203 3
115 205 6
115 206 7
115 207 10
115 208 2
115 209 10
115 211 5
115 212 9
115 213 2
115 214 9
115 215 2
115 216 10
115 217 4
115 218 9
115 220 10
115 221 5
115 222 6
115 224 7
115 225 6
115 226 4
115 227 5
115 229 3
115 230 10
115 231 7
115 232 1
115 234 10
115 235 1
115 238 8
115 239 4
115 241 3
115 242 6
115 245 1
115 246 5
115 247 7
115 248 4
115 249 5
115 250 8
115 251 7
115 253 6
115 255 5
115 257 10
115 258 5
115 259 6
115 261 5
115 263 1
115 264 5
115 267 1
115 268 2
115 270 2
115 271 2
115 272 3
115 273 5
115 275 6
115 277 8
115 278 6
115 281 9
115 282 9
115 284 8
115 286 5
115 287 7
115 288 7
115 291 1
115 292 3
115 293 9
115 294 2
115 296 1
115 297 7
115 299 5
116 117 2
116 118 6
116 119 10
116 122 5
116 123 5
116 124 10
116 126 5
116 127 8
116 128 3
116 129 9
116 130 3
116 131 10
116 132 2
116 133 3
116 135 9
116 136 1
116 137 3
116 138 6
116 139 4
116 140 4
116 141 6
116 142 9
116 143 5
116 144 10
116 145 6
116 146 8
116 150 5
116 151 4
116 154 8
116 156 8
116 157 9
116 159 10
116 160 4
116 161 7
116 162 1
116 164 1
116 165 5
116 166 5
116 167 6
116 168 8
116 169 7
116 170 7
116 173 7
116 174 2
116 176 2
116 177 1
116 178 1
116 179 7
116 180 4
116 182 7
116 183 4
116 184 1
116 185 8
116 186 8
116 188 7
116 191 2
116 192 3
116 193 6
116 195 3
116 196 1
116 203 8
116 204 7
116 205 9
116 207 6
116 210 6
116 211 2
116 212 8
116 213 8
116 214 9
116 217 3
116 219 9
116 220 4
116 221 8
116 222 5
116 223 8
116 224 4
116 226 10
116 227 4
116 230 8
116 235 5
116 237 7
116 238 1
116 239 5
116 240 8
116 241 9
116 242 6
116 243 10
116 244 9
116 245 1
116 246 2
116 247 4
116 248 10
116 249 1
116 255 6
116 256 6
116 257 9
116 259 8
116 262 9
116 263 6
116 264 2
116 265 2
116 266 5
116 267 9
116 268 7
116 269 10
116 271 8
116 273 1
116 274 10
116 275 3
116 276 4
116 279 5
116 280 8
116 282 7
116 283 7
116 285 1
116 286 3
116 287 7
116 288 7
116 289 1
116 290 8
116 291 5
116 292 9
116 293 2
116 294 8
116 295 5
116 296 2
116 299 5
117 119 2
117 120 10
117 121 2
117 122 10
117 123 10
117 124 9
117 125 1
117 126 5
117 128 6
117 131 4
117 132 1
117 133 9
117 135 5
117 136 10
117 137 9
117 138 2
117 140 10
117 142 7
117 143 7
117 145 2
117 147 5
117 148 4
117 149 7
117 151 5
117 152 6
117 153 7
117 154 10
117 155 6
117 156 6
117 157 8
117 158 8
117 160 1
117 161 3
117 162 8
117 164 8
117 166 3
117 167 2
117 169 3
117 170 1
117 173 4
117 174 9
117 175 10
117 177 6
117 179 2
117 180 3
117 181 7
117 184 7
117 187 5
117 188 10
117 189 7
117 190 6
117 191 1
117 192 8
117 194 6
117 195 3
117 197 10
117 198 6
117 199 8
117 200 9
117 201 1
117 202 3
117 203 4
117 204 7
117 205 10
117 207 2
117 209 5
117 210 3
117 211 5
117 212 6
117 213 4
117 214 6
117 216 2
117 221 10
117 222 3
117 223 5
117 225 1
117 226 3
117 227 10
117 228 8
117 229 8
117 230 4
117 231 5
117 232 7
117 233 7
117 234 1
117 235 10
117 236 10
117 237 2
117 240 6
117 242 4
117 245 4
117 246 7
117 247 5
117 250 5
117 252 4
117 253 9
117 254 3
117 255 3
117 256 10
117 257 2
117 260 3
117 261 2
117 262 9
117 263 3
117 265 5
117 266 9
117 267 2
117 269 4
117 270 2
117 271 6
117 272 10
117 273 3
117 274 6
117 275 2
117 276 10
117 277 5
117 278 9
117 279 1
117 280 7
117 281 6
117 282 2
117 284 2
117 285 10
117 288 10
117 289 1
117 290 1
117 292 3
117 293 8
117 294 8
117 295 7
117 296 10
117 297 6
117 298 5
117 300 5
118 119 6
118 121 9
118 122 8
118 126 4
118 127 5
118 129 7
118 130 7
118 132 8
118 133 3
118 134 1
118 138 2
118 139 9
118 141 9
118 142 9
118 144 5
118 146 3
118 148 7
118 149 1
118 150 10
118 151 4
118 152 4
118 154 4
118 155 7
118 156 3
118 157 5
118 159 2
118 160 3
118 161 2
118 162 5
118 163 3
118 164 4
118 166 3
118 168 1
118 169 9
118 170 7
118 171 2
118 174 6
118 176 6
118 180 7
118 183 3
118 184 10
118 185 10
118 186 5
118 187 7
118 189 6
118 190 10
118 192 4
118 193 8
118 194 9
118 195 10
118 196 3
118 197 5
118 199 6
118 200 2
118 201 3
118 202 6
118 204 7
118 205 5
118 207 9
118 208 1
118 209 5
118 210 5
118 212 10
118 213 2
118 214 9
118 215 1
118 216 1
118 217 4
118 218 2
118 219 6
118 220 7
118 222 1
118 224 5
118 225 4
118 226 2
118 227 6
118 228 10
118 229 7
118 230 10
118 231 10
118 233 3
118 236 6
118 237 6
118 238 5
118 239 6
118 240 6
118 241 10
118 242 9
118 244 3
118 246 9
118 248 8
118 250 1
118 251 7
118 252 8
118 254 10
118 256 10
118 257 8
118 258 4
118 260 7
118 261 3
118 262 2
118 263 4
118 264 8
118 265 7
118 266 1
118 270 1
118 271 4
118 272 10
118 273 6
118 274 2
118 276 3
118 279 7
118 280 9
118 281 10
118 282 1
118 288 4
118 291 6
118 292 6
118 293 9
118 295 8
118 296 5
118 297 6
118 300 2
119 120 6
119 121 1
119 123 4
119 124 2
119 126 3
119 127 7
119 128 8
119 130 4
119 131 3
119 132 8
119 133 4
119 134 8
119 135 7
119 136 2
119 137 8
119 139 9
119 140 5
119 141 6
119 142 8
119 144 10
119 145 2
119 146 6
119 147 6
119 148 4
119 149 1
119 150 4
119 151 9
119 152 1
119 153 6
119 154 4
119 155 1
119 157 5
119 159 3
119 160 8
119 161 5
119 162 5
119 163 9
119 164 8
119 165 6
119 167 2
119 168 4
119 169 10
119 170 4
119 171 1
119 174 6
119 175 4
119 176 5
119 177 8
119 178 10
119 179 9
119 183 2
119 184 1
119 187 3
119 188 4
119 189 3
119 191 10
119 193 8
119 194 6
119 195 3
119 196 1
119 199 9
119 200 10
119 201 8
119 202 8
119 204 3
119 206 3
119 207 5
119 209 2
119 210 5
119 211 8
119 212 8
119 213 1
119 214 3
119 215 3
119 216 1
119 217 3
119 218 3
119 220 9
119 221 5
119 222 6
119 223 7
119 225 2
119 226 5
119 227 7
119 228 6
119 231 1
119 233 4
119 235 9
119 236 8
119 238 7
119 239 4
119 240 2
119 241 1
119 243 6
119 244 7
119 245 10
119 246 7
119 247 7
119 248 3
119 249 10
119 250 5
119 251 9
119 252 6
119 254 3
119 255 9
119 256 10
119 258 9
119 259 7
119 260 2
119 261 6
119 263 10
119 264 7
119 267 6
119 268 8
119 269 5
119 270 3
119 271 3
119 273 5
119 277 1
119 278 4
119 280 5
119 281 8
119 282 1
119 285 3
119 287 7
119 288 9
119 289 10
119 290 7
119 292 2
119 294 2
119 295 1
119 296 1
119 297 6
119 298 9
119 299 1
120 121 7
120 123 10
120 124 2
120 125 5
120 128 5
120 129 7
120 131 8
120 132 2
120 133 5
120 134 6
120 137 6
120 138 8
120 139 9
120 140 2
120 141 2
120 142 8
120 143 5
120 147 6
120 148 10
120 156 8
120 157 1
120 160 8
120 162 7
120 163 6
120 164 8
120 166 9
120 167 4
120 168 3
120 169 1
120 170 1
120 171 2
120 172 2
120 174 9
120 176 3
120 177 8
120 179 5
120 180 5
120 181 7
120 182 4
120 184 7
120 187 9
120 188 2
120 190 3
120 192 8
120 193 5
120 196 7
120 197 4
120 199 2
120 200 10
120 201 10
120 202 5
120 204 9
120 205 6
120 207 5
120 209 6
120 210 2
120 211 4
120 212 2
120 213 6
120 214 2
120 215 9
120 216 7
120 217 1
120 219 3
120 220 5
120 221 3
120 222 7
120 223 9
120 224 1
120 225 1
120 227 6
120 229 9
120 230 10
120 231 2
120 232 1
120 233 8
120 234 10
120 235 3
120 236 1
120 237 1
120 238 5
120 239 10
120 240 1
120 241 4
120 244 2
120 245 8
120 247 9
120 248 5
120 249 4
120 252 6
120 253 1
120 254 9
120 255 4
120 256 1
120 257 2
120 258 8
120 259 1
120 262 5
120 263 6
120 265 6
120 266 10
120 268 10
120 269 3
120 270 4
120 271 3
120 272 6
120 273 1
120 277 7
120 278 1
120 281 3
120 282 1
120 283 5
120 284 1
120 285 4
120 286 6
120 287 7
120 288 9
120 289 10
120 290 2
120 291 6
120 292 1
120 293 2
120 294 4
120 295 1
120 296 7
120 297 3
120 299 10
121 122 2
121 123 1
121 124 9
121 126 1
121 130 8
121 132 10
121 133 6
121 134 10
121 135 2
121 136 2
121 138 9
121 139 1
121 140 9
121 142 7
121 147 10
121 148 3
121 150 2
121 152 9
121 153 10
121 154 5
121 155 4
121 156 9
121 157 8
121 158 4
121 159 2
121 160 6
121 161 7
121 162 2
121 163 6
121 164 3
121 165 6
121 166 7
121 167 1
121 168 8
121 169 10
121 170 6
121 171 7
121 173 8
121 174 3
121 175 7
121 176 3
121 177 1
121 179 4
121 183 6
121 186 2
121 189 6
121 190 7
121 191 3
121 194 6
121 196 4
121 197 2
121 198 10
121 199 5
121 200 1
121 201 3
121 202 6
121 205 3
121 208 4
121 210 2
121 212 10
121 214 3
121 215 5
121 218 6
121 219 6
121 220 9
121 221 10
121 223 5
121 225 5
121 226 6
121 227 1
121 228 1
121 229 5
121 230 4
121 231 1
121 232 4
121 233 4
121 236 3
121 238 5
121 240 9
121 241 3
121 242 8
121 244 10
121 245 8
121 246 7
121 247 4
121 248 5
121 250 4
121 251 3
121 252 1
121 253 7
121 254 2
121 256 7
121 259 8
121 261 9
121 263 2
121 265 6
121 268 2
121 270 10
121 274 2
121 275 7
121 276 4
121 277 5
121 281 8
121 282 4
121 283 2
121 284 8
121 286 8
121 287 1
121 288 9
121 289 6
121 290 3
121 292 8
121 293 3
121 297 1
121 298 2
121 299 9
122 123 5
122 124 6
122 126 9
122 127 5
122 128 4
122 130 5
122 131 1
122 132 6
122 135 6
122 137 6
122 138 5
122 141 5
122 142 7
122 143 4
122 144 3
122 145 7
122 146 4
122 147 5
122 149 2
122 150 6
122 151 10
122 152 1
122 153 6
122 155 8
122 156 9
122 158 2
122 159 9
122 160 4
122 162 3
122 163 3
122 164 3
122 167 6
122 168 6
122 169 3
122 170 6
122 171 3
122 172 5
122 174 4
122 175 9
122 179 6
122 181 4
122 182 1
122 183 1
122 186 3
122 187 9
122 189 2
122 190 4
122 191 2
122 192 7
122 193 4
122 196 4
122 197 8
122 198 6
122 199 2
122 200 5
122 201 6
122 202 5
122 203 6
122 204 3
122 205 9
122 206 4
122 207 8
122 209 5
122 210 1
122 214 4
122 217 4
122 218 2
122 221 9
122 224 10
122 225 8
122 226 9
122 227 10
122 230 7
122 233 2
122 235 6
122 236 8
122 237 1
122 238 5
122 239 3
122 240 6
122 241 6
122 242 3
122 243 2
122 245 2
122 246 10
122 247 5
122 248 6
122 249 7
122 250 2
122 251 2
122 252 1
122 253 6
122 254 2
122 255 5
122 258 6
122 259 9
122 260 9
122 263 1
122 264 10
122 267 9
122 268 3
122 273 4
122 274 8
122 275 2
122 276 4
122 277 6
122 278 5
122 279 5
122 280 6
122 281 4
122 282 8
122 284 9
122 285 6
122 287 10
122 288 7
122 289 6
122 290 7
122 291 5
122 292 1
122 293 9
122 295 1
122 296 2
122 297 1
122 298 5
122 300 5
123 124 2
123 126 7
123 127 4
123 130 1
123 131 5
123 135 5
123 136 5
123 138 7
123 139 1
123 140 6
123 141 1
123 142 9
123 144 9
123 146 4
123 150 3
123 151 7
123 153 4
123 154 5
123 155 9
123 156 6
123 157 6
123 159 5
123 160 7
123 161 4
123 162 5
123 163 9
123 164 10
123 165 8
123 166 5
123 168 6
123 169 7
123 171 10
123 172 1
123 173 5
123 174 5
123 176 4
123 177 6
123 180 10
123 181 7
123 183 6
123 184 4
123 185 4
123 187 4
123 188 10
123 189 9
123 192 2
123 194 4
123 195 9
123 196 5
123 197 6
123 199 10
123 202 8
123 203 9
123 204 9
123 205 10
123 206 8
123 207 4
123 208 9
123 212 7
123 213 10
123 214 5
123 215 5
123 216 2
123 218 5
123 220 10
123 221 4
123 224 4
123 225 3
123 226 4
123 229 9
123 230 6
123 231 3
123 233 8
123 234 7
123 235 1
123 236 4
123 237 4
123 238 9
123 239 3
123 240 5
123 241 10
123 242 7
123 244 8
123 245 2
123 246 10
123 247 3
123 248 9
123 249 3
123 251 9
123 252 1
123 253 3
123 254 8
123 255 4
123 256 9
123 258 2
123 260 10
123 261 9
123 262 7
123 264 3
123 265 7
123 266 8
123 268 4
123 269 10
123 271 8
123 272 3
123 273 7
123 275 10
123 276 4
123 277 6
123 278 9
123 280 8
123 281 5
123 282 4
123 284 5
123 285 5
123 286 8
123 288 1
123 290 7
123 291 9
123 292 10
123 295 1
123 296 10
123 297 10
123 298 1
123 299 1
123 300 6
124 125 6
124 126 7
124 127 9
124 129 1
124 130 8
124 131 4
124 132 6
124 135 9
124 136 6
124 137 6
124 141 4
124 142 6
124 144 4
124 145 8
124 148 7
124 149 9
124 150 1
124 151 6
124 152 2
124 153 2
124 154 10
124 155 1
124 157 5
124 160 3
124 164 10
124 165 6
124 166 5
124 167 3
124 168 9
124 169 1
124 171 7
124 173 8
124 174 6
124 175 4
124 176 4
124 178 6
124 179 8
124 182 6
124 183 5
124 184 4
124 185 6
124 186 5
124 187 7
124 189 4
124 190 3
124 191 8
124 193 3
124 195 4
124 196 1
124 198 1
124 199 7
124 200 7
124 201 6
124 202 10
124 203 1
124 206 2
124 207 2
124 208 3
124 209 7
124 210 3
124 211 5
124 212 2
124 214 8
124 215 5
124 217 10
124 218 2
124 220 5
124 221 8
124 224 8
124 227 9
124 228 5
124 229 5
124 230 3
124 232 4
124 233 10
124 235 5
124 237 3
124 238 8
124 240 7
124 241 10
124 242 3
124 243 2
124 244 5
124 245 5
124 246 3
124 248 2
124 249 6
124 250 8
124 251 3
124 252 6
124 255 4
124 257 10
124 259 9
124 260 7
124 263 8
124 264 1
124 265 9
124 266 10
124 267 4
124 269 5
124 272 4
124 273 3
124 274 3
124 277 2
124 278 7
124 279 9
124 281 6
124 282 8
124 283 3
124 285 8
124 286 9
124 288 3
124 289 1
124 290 9
124 291 3
124 293 9
124 294 8
124 295 4
124 296 6
124 297 1
124 298 4
125 126 8
125 127 2
125 128 6
125 129 7
125 130 6
125 131 9
125 132 10
125 136 9
125 137 2
125 142 9
125 143 7
125 144 9
125 145 9
125 147 7
125 148 8
125 149 4
125 151 5
125 153 5
125 155 4
125 156 9
125 158 9
125 159 1
125 160 7
125 161 8
125 163 4
125 164 4
125 166 5
125 167 10
125 168 9
125 171 9
125 172 7
125 173 9
125 174 2
125 176 8
125 177 2
125 178 4
125 179 4
125 180 5
125 184 2
125 185 8
125 187 4
125 189 4
125 190 10
125 191 9
125 193 6
125 194 6
125 195 4
125 196 4
125 197 9
125 198 9
125 199 8
125 201 6
125 203 9
125 204 10
125 205 6
125 206 6
125 207 9
125 209 7
125 210 5
125 211 2
125 213 6
125 215 2
125 216 3
125 218 3
125 219 2
125 220 7
125 221 2
125 223 1
125 224 5
125 225 1
125 226 7
125 227 5
125 228 5
125 229 5
125 231 6
125 234 5
125 235 4
125 237 1
125 241 8
125 243 2
125 244 6
125 245 6
125 246 10
125 247 7
125 249 9
125 250 7
125 251 5
125 252 7
125 253 4
125 254 5
125 256 8
125 257 6
125 258 10
125 260 10
125 261 5
125 262 9
125 264 10
125 265 1
125 266 5
125 269 6
125 270 7
125 271 10
125 272 6
125 273 6
125 274 4
125 276 9
125 278 3
125 279 3
125 282 5
125 285 1
125 286 4
125 287 2
125 288 5
125 289 5
125 290 6
125 294 4
125 295 10
125 296 3
125 297 2
125 300 8
126 127 4
126 128 4
126 129 6
126 130 6
126 131 1
126 133 2
126 134 8
126 135 6
126 137 3
126 139 9
126 140 5
126 141 8
126 144 2
126 145 1
126 147 10
126 149 10
126 150 4
126 151 6
126 154 4
126 155 5
126 157 3
126 158 9
126 159 5
126 161 9
126 162 3
126 163 1
126 164 4
126 167 4
126 168 8
126 169 8
126 170 2
126 171 3
126 172 6
126 173 5
126 174 3
126 177 8
126 179 10
126 181 1
126 182 3
126 183 3
126 184 4
126 185 2
126 186 5
126 187 10
126 188 10
126 191 8
126 193 8
126 194 5
126 195 8
126 196 2
126 197 4
126 198 5
126 199 2
126 200 5
126 201 2
126 202 9
126 203 10
126 205 7
126 207 6
126 208 6
126 209 2
126 210 5
126 212 10
126 214 9
126 215 10
126 216 7
126 217 5
126 218 3
126 219 1
126 220 3
126 221 3
126 222 3
126 223 2
126 224 3
126 227 9
126 229 8
126 230 1
126 231 9
126 233 1
126 235 6
126 236 2
126 237 9
126 238 6
126 239 7
126 246 7
126 247 4
126 248 8
126 250 5
126 252 10
126 255 1
126 256 3
126 258 8
126 260 10
126 261 5
126 262 4
126 263 10
126 264 2
126 265 6
126 269 5
126 270 7
126 272 8
126 273 7
126 274 3
126 275 9
126 276 1
126 278 7
126 279 8
126 280 1
126 284 7
126 285 9
126 289 10
126 290 1
126 292 6
126 294 6
126 295 5
126 296 1
126 297 4
126 298 3
126 299 1
126 300 10
127 129 4
127 131 9
127 132 7
127 135 10
127 136 9
127 138 3
127 139 2
127 140 3
127 141 8
127 142 8
127 143 3
127 144 10
127 146 3
127 147 2
127 148 10
127 149 4
127 150 2
127 151 7
127 152 1
127 153 10
127 156 3
127 157 8
127 158 9
127 159 3
127 161 2
127 162 8
127 163 9
127 164 4
127 165 10
127 168 6
127 169 8
127 171 5
127 172 6
127 173 9
127 174 6
127 175 5
127 177 5
127 178 4
127 180 8
127 183 9
127 185 1
127 186 7
127 187 5
127 190 3
127 191 3
127 192 4
127 194 7
127 195 6
127 196 4
127 197 2
127 199 8
127 200 2
127 202 9
127 203 5
127 204 8
127 206 5
127 208 6
127 209 8
127 210 10
127 211 10
127 212 6
127 213 7
127 216 10
127 217 3
127 218 1
127 219 7
127 220 4
127 221 8
127 224 1
127 225 8
127 226 1
127 227 5
127 228 4
127 229 6
127 230 9
127 231 1
127 232 10
127 233 7
127 235 2
127 236 2
127 239 3
127 240 2
127 241 7
127 242 8
127 243 7
127 244 9
127 246 8
127 249 8
127 251 5
127 252 7
127 254 2
127 255 9
127 258 5
127 259 3
127 260 5
127 261 1
127 262 7
127 263 8
127 264 6
127 266 9
127 268 8
127 269 3
127 272 8
127 273 9
127 274 8
127 276 2
127 277 3
127 278 5
127 279 6
127 280 1
127 281 1
127 282 10
127 283 5
127 284 6
127 285 10
127 286 4
127 287 8
127 289 8
127 290 9
127 291 8
127 292 8
127 293 9
127 294 4
127 296 4
127 299 10
128 129 3
128 132 8
128 133 3
128 134 10
128 135 4
128 136 4
128 137 6
128 139 6
128 140 6
128 141 6
128 142 10
128 143 3
128 144 9
128 146 7
128 148 5
128 149 1
128 150 1
128 151 10
128 156 4
128 157 10
128 158 3
128 160 6
128 161 7
128 162 3
128 163 6
128 164 8
128 165 10
128 167 5
128 168 10
128 171 10
128 172 7
128 173 4
128 175 2
128 178 3
128 179 3
128 180 5
128 181 7
128 182 6
128 183 7
128 184 3
128 187 8
128 190 6
128 191 2
128 193 7
128 195 1
128 196 8
128 197 5
128 200 8
128 201 7
128 202 3
128 203 9
128 204 4
128 205 7
128 206 5
128 207 1
128 208 4
128 209 2
128 210 6
128 211 4
128 212 5
128 213 6
128 215 6
128 216 10
128 217 2
128 218 10
128 220 5
128 222 5
128 223 7
128 226 4
128 229 1
128 230 6
128 232 10
128 233 1
128 238 8
128 239 5
128 240 9
128 241 6
128 242 2
128 244 10
128 245 10
128 246 2
128 247 2
128 248 6
128 249 3
128 250 4
128 251 7
128 252 5
128 254 4
128 256 4
128 257 1
128 258 6
128 259 4
128 262 4
128 263 2
128 264 5
128 267 7
128 268 3
128 269 10
128 271 5
128 272 6
128 273 2
128 275 1
128 278 6
128 279 4
128 280 3
128 286 1
128 290 7
128 293 9
128 295 10
128 296 5
128 297 1
128 300 1
129 134 1
129 135 3
129 138 2
129 139 9
129 141 9
129 142 2
129 144 9
129 145 7
129 146 7
129 147 6
129 149 3
129 150 7
129 151 4
129 152 7
129 157 6
129 158 4
129 159 3
129 161 9
129 162 8
129 164 3
129 165 4
129 166 5
129 168 6
129 170 2
129 171 5
129 172 4
129 174 6
129 175 2
129 176 10
129 177 9
129 178 8
129 179 3
129 180 3
129 181 6
129 182 7
129 183 8
129 185 6
129 186 6
129 187 4
129 188 5
129 189 1
129 190 1
129 195 9
129 196 9
129 197 10
129 198 4
129 199 3
129 200 3
129 203 9
129 205 5
129 206 3
129 208 10
129 210 2
129 211 6
129 215 5
129 216 7
129 219 7
129 220 2
129 222 4
129 224 6
129 225 9
129 226 3
129 227 8
129 228 10
129 230 6
129 233 3
129 234 9
129 235 1
129 236 1
129 237 7
129 238 6
129 239 8
129 240 7
129 241 9
129 242 5
129 245 4
129 246 5
129 249 1
129 250 9
129 252 4
129 253 9
129 254 3
129 256 4
129 259 6
129 260 1
129 261 5
129 262 10
129 263 8
129 265 7
129 267 3
129 268 4
129 271 7
129 272 2
129 273 5
129 274 7
129 275 5
129 277 10
129 278 8
129 279 7
129 280 10
129 281 4
129 282 4
129 283 2
129 284 7
129 289 5
129 290 10
129 291 1
129 292 5
129 293 1
129 294 10
129 295 6
129 297 2
129 298 10
129 300 7
130 131 4
130 132 8
130 133 9
130 135 6
130 136 7
130 137 4
130 138 7
130 139 10
130 141 4
130 142 1
130 143 1
130 145 6
130 146 2
130 147 1
130 148 7
130 149 6
130 151 4
130 152 9
130 153 5
130 154 5
130 155 9
130 156 7
130 158 4
130 159 6
130 160 10
130 161 5
130 162 8
130 163 5
130 165 9
130 167 3
130 168 3
130 169 4
130 170 9
130 171 10
130 172 1
130 174 7
130 175 3
130 176 3
130 177 10
130 178 9
130 179 1
130 180 8
130 181 7
130 182 1
130 183 9
130 184 7
130 185 4
130 186 1
130 187 3
130 191 1
130 193 5
130 194 2
130 196 10
130 198 6
130 199 8
130 201 4
130 202 9
130 203 5
130 204 8
130 205 7
130 206 4
130 207 1
130 208 4
130 209 6
130 210 10
130 211 2
130 212 2
130 213 3
130 214 9
130 215 10
130 216 8
130 217 8
130 218 3
130 219 4
130 220 8
130 221 7
130 223 10
130 224 4
130 225 5
130 226 10
130 227 10
130 233 5
130 234 1
130 235 4
130 236 10
130 237 6
130 238 10
130 240 9
130 241 4
130 242 8
130 243 5
130 244 6
130 245 2
130 246 8
130 248 10
130 250 10
130 251 2
130 255 10
130 256 7
130 257 5
130 258 6
130 260 6
130 261 10
130 263 5
130 264 7
130 266 6
130 268 8
130 270 5
130 272 2
130 274 8
130 275 4
130 277 5
130 278 4
130 280 7
130 281 5
130 283 7
130 286 10
130 288 8
130 289 4
130 290 1
130 291 9
130 292 1
130 293 2
130 297 1
130 299 9
130 300 8
131 133 2
131 135 8
131 136 1
131 137 1
131 138 4
131 139 1
131 141 1
131 143 5
131 144 10
131 145 1
131 146 10
131 147 8
131 148 2
131 149 7
131 151 6
131 152 6
131 154 5
131 157 6
131 160 8
131 161 10
131 162 2
131 164 6
131 167 8
131 168 2
131 169 7
131 170 9
131 171 6
131 172 5
131 173 6
131 174 6
131 175 4
131 176 3
131 179 5
131 180 10
131 181 5
131 182 8
131 183 7
131 184 3
131 186 10
131 187 9
131 188 5
131 192 6
131 193 10
131 194 3
131 195 2
131 196 3
131 197 10
131 198 4
131 199 5
131 200 4
131 201 7
131 202 2
131 203 2
131 204 8
131 206 8
131 207 3
131 209 7
131 211 1
131 213 2
131 214 3
131 215 1
131 216 2
131 218 10
131 219 4
131 220 2
131 221 5
131 223 4
131 225 6
131 227 4
131 228 6
131 230 5
131 231 9
131 234 6
131 236 10
131 237 3
131 238 4
131 239 4
131 242 8
131 243 7
131 244 8
131 246 6
131 247 4
131 248 10
131 249 4
131 250 7
131 252 10
131 253 7
131 254 8
131 256 10
131 257 2
131 258 4
131 259 3
131 260 9
131 261 7
131 262 2
131 263 2
131 264 6
131 267 1
131 268 4
131 270 1
131 271 7
131 272 10
131 273 3
131 274 5
131 275 7
131 277 1
131 278 6
131 280 1
131 281 2
131 282 6
131 283 4
131 285 9
131 287 7
131 288 1
131 290 1
131 292 7
131 293 3
131 294 5
131 295 10
131 298 3
131 299 10
131 300 9
132 133 6
132 135 3
132 136 10
132 138 3
132 140 5
132 141 8
132 142 10
132 143 6
132 144 5
132 148 3
132 149 8
132 150 10
132 151 8
132 154 8
132 157 5
132 158 1
132 159 9
132 162 7
132 163 4
132 164 1
132 165 2
132 166 1
132 168 8
132 169 1
132 170 3
132 171 6
132 173 9
132 174 1
132 176 1
132 177 9
132 179 5
132 180 5
132 181 7
132 183 1
132 184 10
132 186 8
132 187 4
132 188 10
132 189 4
132 190 9
132 191 8
132 193 1
132 195 9
132 196 1
132 198 7
132 199 8
132 200 4
132 203 10
132 205 10
132 207 9
132 211 2
132 212 1
132 214 7
132 216 6
132 217 5
132 218 5
132 219 9
132 220 2
132 221 9
132 223 3
132 224 10
132 225 10
132 227 8
132 228 7
132 229 4
132 232 8
132 233 4
132 234 10
132 236 5
132 239 4
132 240 9
132 241 10
132 242 7
132 244 1
132 246 6
132 247 8
132 249 2
132 250 3
132 251 4
132 253 7
132 254 1
132 255 2
132 258 10
132 259 9
132 260 1
132 262 10
132 264 3
132 265 2
132 267 5
132 272 2
132 276 7
132 277 2
132 278 3
132 281 10
132 282 9
132 283 8
132 284 4
132 285 1
132 286 2
132 287 8
132 288 1
132 289 2
132 290 4
132 291 4
132 292 2
132 293 8
132 296 5
132 298 4
132 299 9
132 300 5
133 134 9
133 135 2
133 136 4
133 137 9
133 141 3
133 143 3
133 144 4
133 145 2
133 146 3
133 148 1
133 149 3
133 150 7
133 151 3
133 152 9
133 155 2
133 156 2
133 159 8
133 160 7
133 161 1
133 162 5
133 164 3
133 165 7
133 166 7
133 167 7
133 168 8
133 170 2
133 171 3
133 172 5
133 173 5
133 174 4
133 175 2
133 178 10
133 179 4
133 180 10
133 181 1
133 182 4
133 183 10
133 184 10
133 185 7
133 187 2
133 190 6
133 191 8
133 192 6
133 193 8
133 194 4
133 195 2
133 197 8
133 199 9
133 201 7
133 202 7
133 203 6
133 204 2
133 205 3
133 206 7
133 207 1
133 210 1
133 211 4
133 214 5
133 215 6
133 216 1
133 217 7
133 218 5
133 219 5
133 220 8
133 222 9
133 225 2
133 226 5
133 228 7
133 230 7
133 232 3
133 235 5
133 237 6
133 238 10
133 240 8
133 242 2
133 243 1
133 244 1
133 245 2
133 247 9
133 248 4
133 249 3
133 250 10
133 251 3
133 253 4
133 254 8
133 256 2
133 257 4
133 258 8
133 259 4
133 260 8
133 261 3
133 263 2
133 265 6
133 269 10
133 270 6
133 271 8
133 273 10
133 274 5
133 275 1
133 276 4
133 278 5
133 280 5
133 281 6
133 283 9
133 284 8
133 286 4
133 287 3
133 288 7
133 290 5
133 291 7
133 292 1
133 294 7
133 295 4
133 296 5
133 300 5
134 135 5
134 136 5
134 138 9
134 139 10
134 140 9
134 141 5
134 142 3
134 143 4
134 147 10
134 149 2
134 150 8
134 151 1
134 152 7
134 153 3
134 154 8
134 155 8
134 156 1
134 157 10
134 158 6
134 160 2
134 161 8
134 163 2
134 165 6
134 166 7
134 167 2
134 168 2
134 169 1
134 170 1
134 172 4
134 173 10
134 174 9
134 178 1
134 179 5
134 181 3
134 182 5
134 183 1
134 184 2
134 186 6
134 187 3
134 189 7
134 190 2
134 191 5
134 192 4
134 193 8
134 194 7
134 195 7
134 196 3
134 197 7
134 198 3
134 199 3
134 200 5
134 201 9
134 203 9
134 204 3
134 205 7
134 206 4
134 207 2
134 208 3
134 213 2
134 215 9
134 216 6
134 217 7
134 218 5
134 219 3
134 220 4
134 221 4
134 222 1
134 225 1
134 226 7
134 227 5
134 228 3
134 229 10
134 231 10
134 232 9
134 233 2
134 234 3
134 237 8
134 238 8
134 242 9
134 247 2
134 248 6
134 249 10
134 250 5
134 251 10
134 252 1
134 254 4
134 255 5
134 256 5
134 258 5
134 261 10
134 262 3
134 263 5
134 265 4
134 269 9
134 270 9
134 271 9
134 272 6
134 273 4
134 274 7
134 275 1
134 276 10
134 278 1
134 279 7
134 280 6
134 282 5
134 283 5
134 284 1
134 285 10
134 286 4
134 290 8
134 291 3
134 292 7
134 293 6
134 294 7
134 296 1
134 298 7
134 300 7
135 136 8
135 138 9
135 139 3
135 141 2
135 142 6
135 143 3
135 144 1
135 147 4
135 148 8
135 149 3
135 151 8
135 153 4
135 154 6
135 155 1
135 156 10
135 157 6
135 160 3
135 161 1
135 162 1
135 163 7
135 167 3
135 169 10
135 170 4
135 172 6
135 173 8
135 174 9
135 175 4
135 176 7
135 178 1
135 179 10
135 180 5
135 181 2
135 182 10
135 183 1
135 184 10
135 185 8
135 187 5
135 188 7
135 190 9
135 191 5
135 192 5
135 193 4
135 195 8
135 196 8
135 198 9
135 199 5
135 201 4
135 202 10
135 204 2
135 207 2
135 208 4
135 211 9
135 212 1
135 213 9
135 214 6
135 215 3
135 216 2
135 217 3
135 220 4
135 221 3
135 222 2
135 224 3
135 225 6
135 226 1
135 227 5
135 229 1
135 230 1
135 232 7
135 234 10
135 236 9
135 237 6
135 238 10
135 239 7
135 240 6
135 242 7
135 243 10
135 245 4
135 248 7
135 249 5
135 251 6
135 252 4
135 253 3
135 254 5
135 255 3
135 258 3
135 259 9
135 260 4
135 261 4
135 262 1
135 263 4
135 264 3
135 267 10
135 269 9
135 274 3
135 275 7
135 277 4
135 279 9
135 281 1
135 282 7
135 283 1
135 285 6
135 286 7
135 287 5
135 289 5
135 292 10
135 293 6
135 295 6
135 296 7
135 297 3
135 298 3
135 300 4
136 138 5
136 140 5
136 142 6
136 143 8
136 145 3
136 146 7
136 147 9
136 149 7
136 150 8
136 151 3
136 152 8
136 153 5
136 154 2
136 155 10
136 156 3
136 157 4
136 158 3
136 161 2
136 162 9
136 164 6
136 165 6
136 166 4
136 167 8
136 169 1
136 171 9
136 173 9
136 174 6
136 175 5
136 177 8
136 183 10
136 184 5
136 185 4
136 187 2
136 188 6
136 189 5
136 190 6
136 191 7
136 192 10
136 193 5
136 195 1
136 196 3
136 198 5
136 199 2
136 200 5
136 201 5
136 202 8
136 203 10
136 204 10
136 206 1
136 209 9
136 210 2
136 211 1
136 212 3
136 213 8
136 214 3
136 218 4
136 219 1
136 220 10
136 221 1
136 222 3
136 223 6
136 224 7
136 225 2
136 226 10
136 227 5
136 228 10
136 229 1
136 230 9
136 231 5
136 232 8
136 234 3
136 235 10
136 236 8
136 237 1
136 240 9
136 241 2
136 242 8
136 243 8
136 244 6
136 245 8
136 246 7
136 247 1
136 248 9
136 250 10
136 252 9
136 254 10
136 255 6
136 257 10
136 259 7
136 261 4
136 262 10
136 263 7
136 265 4
136 267 8
136 268 6
136 270 3
136 272 10
136 273 5
136 275 10
136 276 3
136 278 10
136 280 1
136 282 9
136 283 5
136 284 3
136 285 6
136 286 7
136 288 1
136 290 5
136 291 5
136 292 2
136 293 9
136 294 7
136 295 1
136 296 5
136 297 1
136 298 2
136 299 6
136 300 7
137 138 9
137 139 6
137 141 2
137 143 1
137 147 10
137 148 6
137 149 7
137 153 5
137 154 10
137 155 10
137 156 4
137 157 7
137 158 6
137 159 4
137 162 1
137 163 6
137 165 2
137 166 3
137 168 9
137 169 5
137 170 5
137 171 4
137 173 1
137 175 1
137 176 5
137 177 5
137 178 9
137 179 2
137 180 5
137 182 6
137 184 7
137 185 2
137 186 4
137 187 9
137 189 1
137 191 10
137 192 8
137 193 10
137 195 3
137 196 5
137 199 4
137 200 4
137 202 3
137 204 4
137 206 7
137 207 3
137 208 4
137 209 7
137 210 2
137 211 4
137 212 10
137 213 2
137 214 2
137 215 5
137 216 3
137 217 2
137 218 2
137 220 1
137 221 6
137 223 9
137 224 5
137 225 2
137 226 7
137 227 8
137 231 7
137 233 2
137 234 6
137 235 4
137 236 9
137 237 1
137 238 7
137 239 3
137 240 1
137 241 10
137 242 9
137 243 5
137 244 9
137 245 3
137 246 4
137 247 3
137 249 3
137 250 4
137 253 8
137 254 2
137 255 8
137 256 8
137 257 6
137 259 7
137 261 2
137 262 3
137 263 5
137 265 9
137 266 2
137 268 10
137 269 5
137 271 5
137 274 10
137 275 2
137 276 9
137 277 10
137 280 9
137 283 5
137 284 7
137 286 4
137 288 3
137 290 7
137 291 7
137 293 5
137 294 2
137 296 5
137 297 7
137 299 9
138 139 9
138 140 1
138 141 2
138 142 1
138 143 1
138 145 3
138 146 3
138 147 5
138 148 3
138 149 6
138 150 4
138 151 3
138 152 10
138 153 5
138 154 5
138 155 4
138 156 5
138 160 10
138 162 1
138 163 8
138 165 5
138 169 1
138 170 10
138 171 8
138 173 10
138 174 2
138 176 8
138 177 3
138 178 3
138 179 10
138 180 4
138 181 8
138 182 7
138 184 8
138 186 7
138 187 6
138 188 4
138 189 8
138 190 2
138 191 7
138 193 9
138 194 3
138 195 3
138 196 6
138 197 6
138 200 6
138 201 5
138 203 1
138 204 1
138 206 1
138 207 2
138 208 6
138 209 7
138 211 9
138 212 1
138 214 6
138 216 2
138 217 4
138 218 2
138 219 5
138 220 1
138 221 10
138 222 2
138 225 5
138 226 4
138 227 8
138 228 5
138 230 10
138 232 8
138 234 7
138 235 2
138 236 3
138 237 8
138 238 5
138 239 2
138 240 7
138 243 6
138 244 10
138 245 5
138 246 3
138 247 1
138 248 9
138 249 10
138 250 3
138 254 8
138 255 9
138 256 8
138 257 3
138 261 1
138 262 4
138 263 4
138 264 9
138 265 1
138 266 5
138 267 8
138 268 3
138 270 1
138 271 4
138 273 9
138 274 3
138 276 10
138 277 8
138 278 8
138 279 9
138 280 4
138 281 3
138 282 7
138 283 5
138 284 5
138 285 3
138 287 5
138 288 7
138 292 5
138 293 9
138 295 3
138 296 4
138 299 4
138 300 9
139 140 7
139 141 8
139 142 4
139 143 8
139 146 10
139 147 3
139 148 3
139 149 5
139 150 9
139 152 4
139 153 10
139 154 1
139 156 8
139 157 9
139 159 1
139 160 9
139 161 2
139 162 8
139 163 4
139 165 7
139 166 1
139 171 10
139 172 4
139 174 1
139 176 9
139 178 1
139 182 2
139 183 1
139 185 9
139 186 2
139 187 3
139 188 5
139 189 4
139 190 9
139 191 8
139 192 3
139 193 4
139 194 2
139 198 4
139 199 3
139 200 5
139 201 2
139 202 3
139 203 10
139 205 4
139 207 2
139 208 3
139 209 2
139 210 1
139 211 7
139 212 10
139 214 5
139 215 5
139 217 5
139 219 9
139 220 3
139 223 2
139 224 7
139 225 7
139 226 3
139 227 6
139 229 9
139 230 5
139 233 5
139 234 1
139 235 1
139 237 9
139 238 5
139 239 5
139 241 7
139 242 10
139 243 4
139 244 4
139 245 6
139 246 4
139 248 8
139 249 3
139 250 6
139 251 1
139 253 5
139 254 1
139 255 1
139 256 9
139 259 4
139 260 9
139 261 6
139 262 9
139 263 10
139 264 4
139 265 8
139 266 10
139 269 5
139 271 6
139 273 1
139 275 8
139 276 4
139 277 5
139 278 7
139 281 10
139 282 1
139 283 5
139 284 3
139 286 8
139 287 2
139 288 5
139 289 10
139 290 9
139 291 2
139 293 9
139 294 1
139 295 3
139 297 6
139 298 8
139 299 10
139 300 6
140 141 10
140 146 8
140 147 8
140 148 7
140 150 1
140 152 1
140 153 9
140 154 6
140 155 6
140 156 10
140 157 10
140 158 8
140 160 7
140 162 1
140 165 5
140 166 2
140 167 3
140 169 4
140 171 9
140 172 8
140 173 7
140 174 6
140 175 4
140 180 2
140 183 9
140 184 4
140 187 5
140 188 5
140 190 5
140 191 4
140 192 10
140 193 6
140 194 7
140 195 6
140 196 5
140 197 7
140 198 5
140 199 4
140 200 8
140 203 3
140 204 7
140 205 3
140 206 9
140 208 8
140 212 6
140 216 3
140 217 10
140 218 5
140 222 3
140 223 4
140 225 4
140 226 1
140 230 4
140 231 8
140 234 3
140 236 5
140 237 10
140 238 2
140 239 4
140 241 5
140 243 9
140 245 3
140 246 1
140 248 10
140 249 6
140 252 4
140 253 4
140 254 9
140 255 1
140 259 3
140 260 2
140 261 6
140 263 5
140 268 2
140 269 10
140 271 10
140 272 3
140 274 3
140 279 8
140 282 10
140 283 8
140 284 8
140 285 1
140 286 4
140 287 5
140 288 6
140 289 5
140 290 2
140 291 1
140 292 9
140 294 1
140 296 10
140 298 9
140 299 7
140 300 10
141 143 1
141 144 3
141 145 9
141 146 10
141 148 7
141 149 3
141 151 7
141 153 8
141 155 2
141 157 6
141 158 1
141 161 2
141 162 7
141 164 6
141 165 1
141 166 5
141 167 4
141 168 10
141 170 2
141 171 5
141 172 5
141 173 5
141 174 3
141 175 5
141 176 3
141 177 10
141 180 3
141 181 8
141 182 10
141 183 6
141 184 5
141 185 6
141 187 9
141 188 8
141 190 4
141 191 5
141 192 9
141 193 3
141 194 7
141 195 2
141 196 5
141 199 9
141 200 5
141 201 6
141 203 7
141 204 8
141 205 7
141 206 7
141 207 2
141 208 2
141 209 2
141 210 2
141 212 5
141 214 2
141 215 9
141 217 1
141 218 5
141 219 3
141 220 5
141 224 2
141 225 3
141 226 3
141 228 6
141 231 7
141 232 9
141 233 8
141 234 6
141 235 10
141 236 2
141 240 7
141 243 6
141 244 5
141 247 3
141 248 4
141 249 9
141 250 3
141 251 5
141 252 2
141 253 4
141 254 10
141 255 3
141 256 4
141 257 5
141 258 10
141 259 2
141 260 6
141 261 10
141 264 6
141 265 1
141 266 8
141 267 4
141 269 5
141 270 7
141 271 2
141 272 10
141 273 9
141 274 7
141 276 9
141 278 10
141 279 4
141 282 7
141 283 2
141 285 6
141 286 10
141 287 3
141 288 9
141 290 9
141 292 2
141 294 10
141 295 6
141 297 9
141 298 5
141 299 5
141 300 6
142 143 4
142 144 1
142 145 9
142 147 9
142 148 5
142 151 9
142 154 9
142 155 10
142 156 5
142 157 6
142 159 4
142 160 9
142 161 5
142 162 7
142 163 2
142 164 5
142 165 7
142 167 9
142 168 7
142 169 3
142 170 10
142 171 1
142 173 6
142 174 3
142 175 5
142 177 7
142 178 9
142 179 10
142 180 9
142 181 10
142 182 8
142 185 9
142 186 9
142 187 1
142 190 1
142 194 1
142 196 1
142 197 10
142 198 6
142 199 2
142 200 1
142 201 6
142 202 10
142 203 10
142 207 10
142 208 1
142 209 7
142 210 8
142 212 4
142 213 6
142 214 6
142 215 6
142 217 10
142 218 5
142 220 8
142 221 3
142 222 1
142 223 1
142 225 1
142 226 7
142 227 4
142 228 5
142 229 7
142 231 3
142 232 6
142 233 7
142 234 2
142 235 8
142 236 7
142 238 3
142 242 8
142 243 8
142 244 8
142 246 5
142 249 10
142 250 10
142 252 1
142 253 7
142 254 6
142 255 7
142 256 5
142 257 7
142 258 7
142 259 4
142 260 1
142 261 1
142 262 2
142 265 10
142 266 1
142 268 8
142 270 1
142 271 3
142 272 3
142 273 8
142 274 7
142 276 2
142 278 6
142 280 6
142 281 4
142 282 7
142 284 9
142 285 3
142 288 8
142 290 8
142 291 1
142 292 7
142 293 6
142 294 2
142 296 4
142 297 7
142 298 3
142 299 1
143 144 4
143 145 2
143 146 5
143 147 2
143 148 10
143 149 5
143 154 8
143 155 5
143 156 9
143 159 5
143 160 3
143 161 9
143 162 5
143 164 3
143 165 9
143 167 2
143 168 8
143 169 10
143 170 10
143 171 3
143 173 2
143 175 10
143 176 7
143 177 8
143 179 4
143 180 5
143 181 8
143 182 6
143 183 3
143 184 7
143 189 10
143 190 5
143 191 1
143 192 5
143 194 7
143 195 5
143 197 7
143 200 4
143 201 5
143 204 5
143 206 10
143 208 6
143 209 3
143 211 1
143 212 6
143 214 7
143 215 4
143 216 6
143 217 8
143 219 5
143 221 4
143 223 6
143 224 9
143 228 7
143 229 10
143 230 1
143 231 1
143 232 2
143 234 1
143 235 1
143 236 9
143 237 3
143 242 5
143 243 2
143 244 4
143 245 10
143 246 8
143 249 2
143 251 7
143 253 9
143 254 10
143 255 3
143 256 8
143 257 7
143 258 7
143 259 4
143 261 4
143 263 7
143 264 10
143 265 4
143 267 6
143 268 6
143 269 7
143 270 7
143 273 2
143 274 8
143 275 1
143 276 6
143 278 8
143 281 4
143 282 1
143 283 1
143 284 3
143 286 9
143 287 5
143 289 10
143 290 8
143 292 6
143 294 3
143 295 7
143 297 2
143 298 8
143 299 8
144 145 4
144 147 3
144 148 4
144 149 10
144 150 10
144 151 6
144 153 3
144 155 1
144 157 1
144 158 2
144 159 5
144 160 4
144 161 1
144 162 3
144 163 5
144 164 3
144 165 8
144 166 8
144 167 5
144 169 10
144 170 2
144 174 3
144 175 7
144 180 4
144 181 4
144 182 10
144 183 6
144 184 10
144 185 4
144 187 9
144 189 9
144 190 6
144 193 7
144 194 7
144 195 8
144 196 3
144 197 4
144 198 1
144 201 7
144 202 1
144 203 8
144 204 9
144 205 8
144 207 6
144 208 7
144 210 10
144 211 2
144 212 1
144 213 8
144 215 7
144 216 3
144 218 2
144 219 3
144 220 10
144 221 1
144 223 4
144 226 1
144 227 8
144 228 8
144 229 10
144 230 8
144 233 5
144 234 4
144 235 10
144 236 10
144 237 10
144 241 7
144 242 1
144 243 10
144 244 10
144 245 9
144 246 2
144 247 9
144 248 4
144 251 1
144 252 4
144 253 10
144 254 1
144 257 3
144 258 5
144 259 7
144 261 4
144 262 8
144 263 4
144 264 10
144 265 4
144 268 8
144 269 6
144 275 2
144 276 3
144 277 10
144 278 8
144 280 1
144 282 2
144 284 6
144 285 10
144 286 7
144 287 5
144 289 10
144 290 8
144 291 4
144 292 5
144 293 6
144 294 2
144 296 10
144 297 8
144 298 3
144 300 7
145 146 8
145 147 7
145 148 1
145 150 8
145 153 4
145 154 8
145 157 9
145 158 6
145 159 1
145 160 5
145 162 8
145 163 1
145 164 6
145 165 2
145 166 4
145 168 8
145 169 6
145 170 2
145 171 1
145 172 1
145 175 1
145 178 1
145 182 8
145 183 10
145 184 6
145 186 3
145 187 10
145 188 6
145 190 2
145 191 5
145 193 1
145 196 8
145 197 4
145 198 9
145 200 5
145 203 7
145 204 3
145 208 1
145 209 7
145 210 7
145 211 8
145 212 9
145 213 3
145 214 5
145 215 7
145 216 10
145 217 4
145 219 6
145 221 4
145 222 5
145 223 8
145 224 4
145 225 9
145 226 1
145 227 8
145 229 3
145 230 4
145 231 3
145 232 3
145 233 9
145 235 5
145 236 8
145 237 9
145 239 7
145 240 2
145 241 1
145 242 3
145 243 10
145 244 1
145 245 5
145 248 2
145 251 8
145 252 10
145 253 1
145 254 3
145 255 5
145 256 9
145 257 9
145 258 1
145 259 3
145 260 2
145 262 3
145 264 1
145 265 8
145 267 8
145 268 10
145 269 10
145 271 4
145 272 3
145 273 3
145 274 9
145 277 1
145 278 8
145 279 4
145 280 5
145 281 7
145 282 4
145 283 9
145 284 9
145 285 1
145 286 10
145 287 4
145 289 3
145 290 6
145 291 5
145 292 1
145 293 3
145 294 9
145 295 3
145 296 1
145 299 5
145 300 9
146 147 6
146 148 10
146 149 3
146 151 8
146 152 6
146 153 8
146 154 2
146 155 4
146 157 2
146 160 2
146 161 3
146 164 6
146 166 3
146 167 6
146 168 10
146 169 6
146 170 3
146 173 5
146 175 7
146 176 3
146 177 4
146 179 10
146 180 3
146 181 3
146 182 5
146 183 4
146 184 8
146 185 1
146 186 6
146 188 7
146 189 1
146 190 10
146 192 10
146 194 5
146 195 2
146 198 9
146 199 1
146 200 8
146 201 1
146 202 3
146 203 2
146 204 4
146 205 8
146 206 2
146 209 3
146 211 1
146 212 6
146 213 2
146 214 5
146 216 2
146 218 3
146 221 8
146 222 1
146 223 9
146 224 6
146 225 4
146 226 8
146 227 8
146 228 1
146 230 1
146 234 5
146 237 5
146 239 2
146 240 10
146 241 8
146 243 4
146 245 9
146 247 8
146 249 5
146 251 3
146 255 4
146 256 8
146 257 2
146 260 5
146 261 10
146 262 9
146 263 3
146 264 8
146 266 9
146 268 1
146 269 10
146 270 9
146 271 5
146 272 2
146 273 3
146 274 4
146 275 4
146 277 3
146 278 6
146 279 4
146 280 2
146 281 6
146 285 4
146 286 9
146 287 6
146 288 10
146 289 9
146 290 3
146 291 10
146 293 8
146 295 7
146 296 9
146 297 3
146 300 3
147 148 10
147 149 6
147 150 9
147 151 9
147 152 10
147 153 3
147 154 9
147 155 8
147 156 8
147 157 9
147 161 6
147 163 2
147 167 9
147 168 8
147 171 3
147 176 6
147 177 6
147 178 4
147 179 5
147 180 5
147 182 5
147 183 2
147 184 2
147 187 2
147 189 6
147 191 3
147 192 6
147 193 1
147 195 3
147 196 7
147 201 6
147 202 3
147 203 2
147 204 7
147 205 1
147 206 9
147 210 7
147 211 10
147 213 4
147 214 2
147 215 10
147 216 10
147 217 9
147 218 8
147 219 6
147 221 3
147 224 3
147 225 6
147 226 4
147 228 10
147 230 2
147 231 7
147 232 10
147 233 9
147 234 3
147 235 3
147 236 1
147 237 4
147 239 2
147 243 8
147 244 5
147 245 7
147 247 3
147 249 9
147 250 8
147 252 7
147 254 5
147 255 10
147 256 8
147 257 2
147 259 1
147 261 4
147 263 1
147 264 9
147 265 2
147 266 3
147 267 2
147 268 10
147 270 9
147 272 4
147 274 1
147 275 2
147 276 3
147 279 2
147 280 4
147 281 7
147 282 7
147 284 5
147 288 7
147 289 7
147 290 5
147 291 9
147 292 10
147 294 6
147 295 4
147 296 3
147 297 6
147 299 6
147 300 9
148 149 10
148 153 4
148 155 6
148 156 4
148 157 7
148 158 10
148 160 9
148 161 10
148 162 1
148 164 8
148 165 3
148 166 4
148 168 8
148 169 3
148 170 4
148 172 1
148 173 6
148 174 4
148 177 4
148 179 10
148 180 3
148 181 3
148 182 6
148 183 4
148 184 7
148 185 7
148 187 5
148 189 10
148 191 3
148 192 8
148 193 8
148 194 1
148 196 6
148 197 7
148 199 1
148 200 1
148 201 9
148 202 9
148 203 9
148 204 2
148 205 7
148 207 9
148 210 5
148 211 2
148 212 4
148 213 5
148 215 10
148 216 8
148 217 1
148 218 2
148 219 6
148 220 10
148 221 2
148 223 8
148 225 7
148 226 9
148 228 3
148 229 2
148 230 2
148 232 2
148 233 3
148 235 9
148 236 1
148 237 1
148 238 10
148 239 7
148 240 10
148 243 3
148 244 1
148 246 10
148 247 7
148 248 8
148 249 4
148 250 5
148 251 10
148 253 8
148 254 10
148 255 9
148 257 8
148 259 9
148 260 7
148 262 8
148 264 9
148 266 4
148 272 5
148 275 8
148 276 7
148 277 7
148 278 6
148 280 1
148 282 3
148 283 6
148 284 1
148 285 10
148 286 5
148 288 2
148 289 4
148 290 3
148 291 8
148 293 6
148 294 6
148 296 5
148 297 1
148 298 7
148 300 7
149 152 10
149 154 2
149 155 2
149 157 7
149 159 7
149 160 10
149 161 3
149 162 10
149 163 6
149 164 10
149 166 2
149 167 3
149 168 9
149 169 10
149 170 10
149 171 1
149 172 2
149 174 6
149 176 3
149 178 5
149 179 1
149 180 7
149 181 4
149 182 3
149 183 2
149 184 5
149 185 1
149 186 10
149 187 2
149 188 4
149 189 2
149 190 3
149 191 6
149 192 10
149 193 9
149 195 2
149 196 9
149 197 1
149 198 1
149 199 9
149 202 5
149 204 5
149 205 4
149 206 2
149 207 4
149 208 10
149 210 10
149 211 5
149 212 7
149 213 10
149 215 6
149 217 1
149 218 8
149 219 1
149 220 4
149 222 8
149 223 7
149 225 3
149 227 1
149 230 7
149 231 4
149 232 7
149 233 4
149 234 4
149 236 4
149 237 6
149 240 2
149 241 9
149 243 10
149 246 1
149 247 4
149 248 4
149 249 2
149 251 3
149 252 3
149 254 6
149 257 8
149 258 6
149 259 10
149 260 6
149 261 4
149 262 5
149 263 8
149 264 7
149 265 9
149 268 4
149 269 2
149 271 9
149 275 5
149 278 8
149 279 8
149 280 6
149 281 5
149 283 3
149 285 7
149 288 6
149 289 6
149 290 9
149 291 5
149 294 6
149 295 5
149 297 1
149 298 7
149 299 6
150 151 1
150 153 3
150 154 8
150 155 3
150 156 7
150 157 6
150 158 8
150 159 6
150 161 3
150 162 7
150 163 1
150 164 3
150 165 2
150 167 4
150 168 8
150 171 10
150 173 4
150 175 3
150 177 9
150 179 6
150 180 6
150 181 9
150 182 1
150 183 1
150 184 5
150 186 1
150 187 8
150 188 6
150 189 3
150 190 3
150 192 3
150 193 1
150 194 10
150 195 6
150 196 6
150 199 6
150 201 5
150 202 2
150 205 5
150 206 3
150 207 4
150 208 7
150 209 8
150 210 5
150 211 8
150 212 4
150 213 7
150 215 6
150 216 10
150 217 10
150 219 7
150 220 9
150 221 3
150 223 3
150 224 9
150 225 3
150 226 8
150 228 2
150 231 2
150 234 2
150 239 6
150 240 9
150 241 1
150 242 5
150 244 1
150 245 8
150 246 7
150 247 1
150 248 8
150 249 6
150 250 5
150 251 7
150 252 5
150 253 6
150 254 7
150 255 6
150 256 9
150 257 2
150 258 7
150 260 7
150 263 7
150 264 8
150 265 1
150 267 2
150 268 7
150 269 9
150 270 10
150 271 6
150 272 3
150 275 9
150 277 3
150 278 3
150 279 7
150 280 10
150 282 4
150 283 4
150 284 2
150 285 7
150 286 10
150 288 4
150 289 8
150 291 8
150 292 1
150 293 4
150 295 7
150 297 3
150 300 6
151 153 7
151 154 7
151 155 1
151 157 7
151 159 5
151 160 9
151 162 6
151 165 9
151 166 1
151 167 3
151 168 7
151 171 4
151 173 4
151 175 4
151 176 5
151 177 9
151 178 9
151 179 9
151 180 6
151 182 8
151 183 9
151 186 10
151 187 2
151 188 3
151 190 10
151 191 10
151 194 3
151 195 7
151 196 4
151 198 2
151 200 10
151 201 5
151 202 1
151 203 6
151 205 3
151 206 7
151 207 5
151 208 1
151 209 7
151 210 2
151 211 6
151 212 9
151 213 8
151 214 7
151 215 1
151 216 10
151 217 2
151 218 5
151 219 7
151 220 8
151 221 9
151 222 3
151 223 9
151 224 8
151 225 2
151 226 1
151 227 10
151 231 2
151 233 2
151 236 5
151 238 10
151 239 4
151 240 4
151 241 1
151 242 8
151 243 2
151 244 6
151 245 10
151 246 6
151 247 9
151 248 10
151 249 9
151 250 2
151 252 4
151 253 8
151 256 7
151 257 8
151 259 8
151 260 1
151 261 9
151 262 5
151 264 8
151 265 8
151 267 3
151 268 3
151 270 3
151 271 3
151 273 3
151 274 2
151 275 4
151 276 1
151 277 2
151 278 5
151 279 8
151 281 8
151 282 4
151 285 5
151 286 2
151 289 7
151 291 2
151 292 6
151 293 9
151 294 2
151 296 6
151 297 7
151 298 10
151 299 9
152 156 5
152 158 10
152 160 4
152 162 6
152 163 4
152 164 8
152 168 3
152 169 3
152 170 5
152 173 7
152 178 2
152 179 2
152 181 10
152 183 10
152 184 2
152 185 5
152 187 8
152 191 1
152 192 1
152 193 6
152 195 8
152 196 5
152 198 7
152 199 3
152 200 2
152 201 3
152 202 3
152 207 9
152 208 3
152 209 2
152 212 3
152 214 1
152 215 3
152 216 5
152 218 6
152 219 5
152 222 3
152 224 2
152 226 9
152 227 2
152 228 2
152 229 5
152 231 8
152 233 4
152 236 7
152 238 2
152 240 9
152 241 9
152 243 10
152 245 9
152 246 4
152 247 2
152 248 7
152 249 2
152 251 10
152 252 10
152 253 9
152 254 2
152 255 4
152 256 2
152 257 7
152 258 9
152 259 9
152 261 3
152 262 4
152 263 10
152 264 2
152 265 7
152 266 4
152 268 1
152 271 1
152 272 2
152 273 1
152 274 10
152 275 7
152 278 1
152 279 3
152 281 1
152 285 1
152 289 8
152 291 9
152 292 10
152 294 5
152 295 10
152 296 5
152 300 3
153 155 2
153 156 1
153 158 9
153 159 10
153 160 4
153 161 2
153 163 1
153 165 8
153 166 10
153 167 3
153 169 4
153 170 5
153 173 10
153 174 3
153 175 8
153 176 2
153 177 5
153 178 6
153 179 2
153 180 10
153 182 10
153 183 5
153 185 3
153 186 10
153 187 8
153 188 6
153 189 1
153 190 4
153 191 8
153 192 1
153 193 10
153 194 4
153 196 9
153 197 2
153 205 9
153 206 1
153 209 4
153 210 9
153 211 4
153 213 5
153 214 6
153 215 10
153 216 9
153 217 9
153 218 1
153 220 9
153 221 2
153 223 7
153 224 1
153 226 5
153 228 2
153 229 1
153 230 8
153 231 7
153 232 3
153 233 7
153 236 4
153 237 9
153 238 2
153 239 6
153 240 5
153 241 6
153 242 3
153 245 3
153 246 7
153 248 9
153 249 1
153 250 1
153 253 4
153 254 2
153 255 3
153 256 5
153 257 8
153 259 4
153 260 9
153 262 7
153 263 3
153 264 5
153 267 3
153 268 10
153 269 5
153 271 3
153 272 6
153 273 5
153 274 9
153 276 7
153 277 7
153 278 3
153 279 9
153 283 8
153 284 4
153 287 5
153 289 2
153 292 9
153 293 10
153 294 8
153 295 9
153 296 2
153 300 3
154 155 1
154 157 10
154 158 7
154 159 2
154 160 9
154 161 6
154 162 6
154 163 2
154 166 4
154 168 2
154 169 5
154 172 6
154 173 1
154 175 10
154 176 1
154 178 4
154 179 7
154 180 3
154 181 1
154 182 7
154 185 5
154 186 6
154 187 6
154 188 4
154 190 3
154 191 9
154 192 8
154 193 4
154 194 6
154 195 9
154 196 8
154 197 4
154 198 3
154 199 4
154 200 2
154 201 8
154 202 2
154 203 9
154 205 4
154 207 1
154 208 1
154 209 8
154 210 4
154 211 6
154 212 7
154 213 4
154 215 10
154 216 3
154 218 7
154 220 5
154 221 8
154 222 6
154 224 6
154 225 5
154 226 6
154 227 2
154 228 9
154 231 4
154 233 6
154 234 7
154 235 8
154 236 4
154 238 4
154 240 3
154 241 10
154 242 4
154 243 9
154 244 8
154 246 4
154 247 7
154 249 6
154 250 10
154 252 10
154 253 6
154 254 2
154 258 10
154 259 8
154 260 7
154 261 4
154 262 1
154 263 4
154 264 6
154 265 3
154 266 8
154 267 8
154 268 5
154 270 2
154 271 2
154 272 7
154 273 3
154 275 3
154 279 6
154 280 9
154 282 2
154 283 5
154 284 1
154 285 8
154 287 9
154 288 7
154 290 4
154 291 2
154 292 1
154 293 10
154 296 1
154 297 8
154 298 7
154 300 7
155 158 2
155 159 1
155 163 5
155 164 8
155 165 7
155 166 1
155 168 2
155 171 10
155 172 7
155 173 8
155 174 9
155 175 10
155 177 1
155 178 5
155 179 1
155 180 1
155 183 3
155 184 3
155 185 9
155 188 2
155 191 6
155 192 7
155 193 9
155 194 4
155 195 6
155 196 8
155 197 3
155 198 6
155 199 2
155 200 3
155 201 2
155 202 4
155 204 2
155 205 7
155 206 8
155 207 7
155 209 2
155 210 5
155 211 4
155 212 6
155 215 7
155 217 1
155 218 4
155 219 3
155 220 8
155 221 3
155 222 2
155 223 2
155 224 10
155 225 4
155 227 3
155 229 6
155 231 7
155 232 8
155 235 2
155 237 3
155 238 6
155 241 3
155 242 1
155 244 2
155 245 4
155 249 5
155 250 7
155 251 4
155 253 1
155 255 6
155 256 8
155 257 10
155 258 6
155 259 8
155 260 2
155 262 8
155 263 3
155 265 8
155 266 9
155 267 7
155 268 8
155 269 9
155 271 9
155 272 2
155 273 10
155 275 6
155 277 6
155 278 1
155 280 4
155 281 8
155 282 1
155 283 9
155 286 9
155 287 8
155 288 3
155 293 3
155 294 10
155 296 7
155 297 2
155 298 3
155 300 5
156 157 9
156 158 10
156 159 7
156 160 1
156 162 4
156 163 7
156 164 5
156 166 5
156 167 5
156 170 3
156 171 10
156 172 2
156 173 6
156 174 10
156 175 4
156 176 8
156 180 10
156 181 2
156 182 8
156 183 1
156 184 8
156 186 3
156 191 6
156 193 6
156 194 3
156 195 1
156 196 2
156 198 1
156 199 4
156 200 2
156 203 2
156 207 1
156 208 6
156 209 10
156 210 2
156 211 1
156 212 6
156 215 3
156 216 6
156 217 1
156 218 3
156 219 1
156 220 5
156 222 8
156 223 1
156 225 3
156 226 10
156 227 3
156 228 7
156 229 5
156 231 8
156 232 5
156 233 4
156 234 9
156 235 10
156 236 5
156 237 5
156 238 5
156 239 5
156 240 10
156 242 6
156 243 4
156 244 2
156 246 4
156 247 10
156 248 7
156 249 6
156 250 4
156 251 10
156 252 7
156 253 5
156 255 8
156 256 3
156 257 5
156 259 9
156 260 3
156 262 9
156 263 6
156 264 9
156 265 7
156 267 3
156 268 4
156 269 5
156 270 8
156 271 8
156 272 1
156 273 6
156 275 4
156 276 3
156 278 1
156 279 3
156 280 1
156 281 3
156 282 9
156 285 8
156 286 1
156 288 7
156 289 1
156 290 6
156 291 4
156 293 6
156 294 10
156 297 10
157 158 3
157 159 6
157 160 4
157 163 1
157 165 7
157 166 4
157 167 10
157 168 8
157 169 1
157 170 7
157 171 2
157 172 3
157 173 6
157 176 1
157 177 4
157 179 10
157 180 2
157 182 7
157 183 9
157 184 8
157 185 2
157 186 8
157 187 5
157 189 8
157 192 5
157 193 8
157 194 1
157 195 8
157 196 5
157 197 10
157 198 1
157 202 7
157 203 8
157 205 7
157 206 9
157 208 9
157 209 1
157 210 3
157 211 4
157 214 3
157 215 9
157 217 1
157 218 6
157 219 1
157 220 8
157 221 3
157 222 9
157 223 10
157 224 2
157 225 10
157 226 8
157 227 1
157 228 6
157 229 4
157 230 5
157 231 1
157 232 9
157 233 3
157 234 9
157 235 7
157 237 5
157 238 10
157 239 3
157 240 4
157 241 1
157 242 4
157 243 1
157 244 8
157 248 6
157 249 6
157 251 8
157 252 1
157 254 1
157 255 7
157 256 8
157 258 10
157 259 2
157 261 3
157 262 2
157 263 4
157 266 6
157 267 4
157 268 8
157 269 1
157 270 1
157 271 1
157 272 9
157 273 2
157 274 4
157 275 2
157 276 2
157 277 2
157 278 4
157 279 5
157 280 6
157 285 1
157 286 9
157 289 2
157 290 9
157 291 3
157 293 8
157 295 8
157 297 10
158 159 3
158 160 9
158 161 3
158 165 10
158 166 6
158 167 2
158 168 10
158 169 6
158 170 1
158 173 2
158 175 5
158 177 3
158 178 2
158 179 6
158 180 5
158 182 6
158 183 7
158 184 6
158 185 2
158 187 1
158 189 3
158 190 6
158 191 4
158 193 10
158 197 7
158 200 5
158 201 10
158 202 3
158 203 3
158 204 8
158 205 3
158 208 2
158 209 3
158 210 7
158 211 5
158 212 4
158 214 8
158 215 10
158 216 1
158 217 1
158 218 10
158 219 4
158 221 10
158 223 4
158 224 6
158 225 10
158 226 9
158 227 2
158 228 4
158 229 8
158 232 10
158 233 1
158 234 8
158 235 10
158 236 6
158 237 9
158 239 4
158 240 5
158 241 2
158 242 1
158 244 8
158 245 9
158 246 8
158 248 5
158 249 6
158 253 4
158 254 10
158 256 8
158 257 10
158 258 10
158 260 2
158 262 2
158 264 7
158 265 10
158 266 4
158 267 4
158 268 6
158 269 7
158 272 10
158 274 6
158 276 6
158 277 8
158 278 7
158 279 1
158 280 9
158 281 1
158 282 1
158 283 1
158 285 8
158 286 2
158 287 8
158 290 8
158 291 9
158 292 2
158 293 2
158 294 3
158 296 3
158 297 2
159 160 1
159 161 8
159 162 8
159 163 7
159 164 10
159 165 1
159 166 6
159 167 10
159 168 5
159 169 10
159 172 2
159 173 2
159 175 10
159 176 3
159 177 6
159 178 5
159 179 5
159 181 6
159 182 7
159 183 2
159 184 5
159 185 2
159 187 1
159 188 4
159 189 1
159 190 5
159 192 4
159 193 5
159 194 10
159 196 8
159 197 6
159 201 6
159 202 3
159 203 10
159 204 7
159 205 2
159 207 6
159 208 6
159 210 9
159 211 7
159 212 5
159 213 8
159 216 6
159 217 7
159 218 2
159 220 7
159 222 6
159 225 9
159 226 10
159 228 4
159 230 8
159 231 2
159 232 10
159 233 3
159 234 6
159 235 9
159 237 7
159 238 1
159 240 9
159 241 6
159 242 3
159 245 3
159 246 2
159 247 6
159 248 10
159 249 9
159 250 6
159 251 6
159 254 9
159 255 5
159 256 5
159 258 9
159 259 2
159 260 8
159 263 3
159 265 1
159 266 6
159 268 3
159 269 10
159 270 9
159 271 8
159 274 4
159 276 5
159 278 8
159 279 9
159 280 5
159 281 1
159 282 7
159 283 6
159 284 1
159 286 7
159 287 5
159 288 8
159 289 2
159 291 5
159 293 9
159 295 10
159 297 5
159 299 9
159 300 7
160 161 3
160 162 4
160 164 3
160 165 9
160 166 3
160 167 3
160 168 3
160 169 8
160 170 8
160 171 1
160 175 8
160 176 10
160 178 9
160 180 3
160 181 2
160 182 3
160 184 4
160 185 10
160 186 8
160 187 10
160 189 10
160 190 1
160 191 3
160 192 3
160 193 4
160 194 3
160 195 4
160 196 3
160 197 9
160 199 9
160 201 6
160 202 1
160 203 6
160 204 8
160 205 9
160 206 5
160 208 9
160 209 2
160 210 5
160 211 7
160 212 4
160 214 6
160 216 5
160 217 5
160 218 6
160 220 7
160 222 2
160 223 4
160 224 10
160 225 3
160 228 1
160 229 7
160 230 7
160 232 2
160 233 10
160 235 6
160 237 3
160 240 7
160 241 7
160 242 7
160 244 6
160 245 7
160 246 5
160 248 5
160 249 5
160 250 2
160 251 8
160 253 8
160 255 8
160 256 1
160 257 6
160 258 9
160 259 7
160 260 9
160 261 2
160 262 3
160 263 8
160 264 8
160 266 7
160 267 7
160 269 10
160 270 4
160 271 9
160 273 10
160 276 8
160 277 2
160 280 8
160 281 6
160 282 8
160 283 10
160 284 4
160 285 8
160 289 9
160 290 3
160 291 5
160 292 10
160 293 1
160 294 6
160 295 3
160 296 9
160 297 10
160 298 6
160 300 8
161 162 8
161 163 5
161 164 1
161 165 7
161 167 6
161 168 2
161 169 10
161 170 3
161 171 5
161 174 9
161 175 3
161 176 4
161 178 10
161 179 2
161 180 3
161 181 8
161 182 7
161 183 5
161 184 2
161 186 4
161 187 10
161 190 4
161 193 8
161 194 1
161 195 1
161 198 6
161 200 5
161 202 5
161 204 1
161 205 7
161 207 1
161 208 9
161 209 8
161 210 9
161 211 3
161 212 9
161 213 9
161 214 8
161 215 4
161 216 2
161 217 4
161 220 2
161 222 10
161 224 2
161 225 4
161 226 7
161 227 4
161 231 10
161 232 6
161 233 10
161 234 2
161 235 3
161 237 1
161 238 3
161 239 8
161 242 1
161 243 6
161 245 10
161 246 6
161 247 8
161 248 7
161 249 5
161 250 10
161 252 5
161 253 5
161 254 9
161 255 7
161 256 9
161 257 4
161 258 8
161 260 2
161 261 3
161 262 2
161 263 9
161 264 7
161 265 6
161 266 2
161 267 5
161 268 7
161 272 8
161 274 1
161 275 3
161 277 7
161 280 7
161 281 5
161 282 3
161 283 5
161 286 9
161 288 7
161 289 6
161 291 10
161 292 9
161 293 3
161 294 6
161 296 2
161 297 2
161 298 4
161 300 9
162 163 5
162 164 2
162 165 2
162 166 4
162 170 4
162 173 1
162 174 6
162 175 10
162 177 9
162 178 8
162 180 2
162 181 5
162 183 2
162 184 4
162 185 9
162 186 1
162 189 2
162 190 1
162 193 7
162 194 6
162 195 2
162 197 5
162 199 2
162 200 1
162 201 9
162 203 4
162 204 1
162 207 9
162 208 10
162 211 9
162 212 8
162 215 6
162 216 8
162 217 1
162 218 3
162 219 7
162 220 3
162 222 4
162 223 5
162 224 1
162 225 3
162 227 1
162 229 7
162 230 6
162 231 7
162 232 6
162 233 7
162 234 1
162 236 1
162 237 3
162 238 6
162 239 3
162 240 8
162 241 4
162 243 9
162 245 1
162 248 9
162 249 6
162 250 1
162 252 8
162 254 2
162 255 9
162 257 6
162 258 8
162 259 10
162 260 8
162 261 1
162 265 6
162 266 10
162 270 1
162 271 8
162 275 7
162 278 7
162 280 2
162 282 3
162 283 10
162 285 6
162 286 4
162 288 5
162 289 9
162 291 8
162 292 3
162 293 1
162 294 5
162 295 10
162 296 6
162 297 4
162 298 7
162 299 2
162 300 2
163 164 2
163 165 7
163 171 5
163 172 6
163 174 8
163 175 4
163 177 9
163 178 5
163 179 4
163 182 3
163 183 5
163 185 10
163 186 2
163 187 8
163 189 5
163 190 10
163 191 2
163 193 10
163 194 9
163 195 2
163 200 7
163 202 5
163 203 3
163 206 9
163 207 9
163 208 10
163 209 3
163 211 7
163 212 6
163 214 7
163 215 6
163 216 9
163 218 9
163 219 6
163 221 9
163 222 3
163 228 3
163 229 6
163 230 3
163 231 1
163 232 5
163 233 4
163 234 1
163 235 10
163 243 9
163 245 2
163 249 7
163 250 1
163 252 8
163 253 9
163 254 1
163 255 7
163 260 5
163 262 3
163 263 3
163 264 10
163 265 3
163 266 7
163 268 9
163 269 6
163 271 8
163 272 3
163 273 7
163 275 9
163 276 6
163 278 5
163 280 3
163 281 2
163 283 3
163 284 3
163 285 9
163 286 8
163 287 8
163 289 8
163 290 2
163 291 2
163 292 2
163 294 5
163 295 9
163 296 1
163 297 5
163 299 8
164 171 3
164 172 7
164 173 1
164 174 6
164 175 9
164 176 1
164 177 2
164 178 7
164 179 5
164 181 2
164 182 4
164 183 6
164 184 7
164 185 1
164 186 1
164 190 2
164 191 5
164 192 5
164 193 5
164 194 10
164 195 1
164 196 9
164 197 4
164 200 4
164 201 10
164 202 6
164 203 3
164 204 4
164 205 1
164 206 10
164 208 9
164 210 4
164 211 4
164 214 4
164 216 7
164 218 6
164 219 4
164 220 3
164 221 9
164 222 10
164 223 3
164 225 4
164 226 5
164 227 10
164 228 8
164 229 8
164 230 2
164 231 8
164 232 6
164 233 4
164 234 9
164 236 10
164 237 2
164 240 10
164 241 3
164 242 5
164 243 10
164 244 5
164 245 6
164 247 2
164 248 10
164 249 3
164 250 6
164 251 9
164 252 5
164 254 1
164 257 4
164 261 1
164 262 8
164 264 5
164 265 8
164 266 4
164 267 2
164 268 8
164 269 6
164 270 10
164 272 7
164 273 10
164 274 9
164 275 9
164 277 5
164 278 5
164 281 4
164 282 7
164 283 9
164 285 5
164 288 5
164 289 1
164 290 3
164 291 10
164 292 7
164 293 5
164 294 1
164 296 1
164 298 8
164 299 10
164 300 4
165 166 5
165 167 6
165 168 2
165 170 2
165 171 3
165 172 3
165 174 3
165 177 10
165 178 7
165 179 5
165 181 3
165 183 1
165 185 4
165 187 7
165 188 4
165 189 7
165 190 10
165 191 3
165 192 6
165 193 6
165 194 6
165 195 4
165 196 3
165 197 4
165 199 10
165 200 5
165 201 9
165 202 8
165 203 10
165 204 4
165 205 5
165 206 1
165 209 6
165 210 3
165 212 10
165 213 8
165 214 1
165 215 8
165 217 6
165 218 1
165 221 7
165 222 4
165 223 9
165 224 5
165 225 6
165 227 4
165 228 8
165 229 3
165 231 2
165 232 1
165 233 1
165 235 10
165 236 3
165 239 4
165 243 1
165 245 6
165 247 1
165 249 3
165 253 8
165 255 1
165 257 6
165 258 4
165 259 4
165 260 2
165 261 10
165 265 6
165 266 7
165 268 3
165 269 2
165 270 9
165 271 10
165 272 7
165 273 5
165 274 10
165 275 3
165 276 6
165 278 2
165 279 10
165 282 8
165 283 2
165 284 10
165 285 7
165 287 8
165 289 10
165 291 6
165 292 8
165 293 2
165 294 5
165 297 10
165 298 1
165 299 9
165 300 3
166 167 8
166 169 6
166 172 1
166 173 10
166 174 8
166 175 3
166 176 3
166 177 5
166 178 4
166 179 10
166 180 7
166 181 10
166 185 1
166 186 1
166 187 10
166 188 9
166 189 10
166 190 2
166 191 5
166 192 6
166 193 7
166 196 4
166 197 10
166 198 5
166 199 1
166 200 7
166 203 7
166 205 5
166 206 8
166 207 3
166 208 9
166 209 5
166 210 2
166 211 10
166 214 4
166 215 6
166 216 9
166 217 5
166 218 1
166 220 9
166 222 5
166 224 3
166 225 5
166 226 4
166 227 8
166 228 4
166 229 9
166 230 9
166 231 10
166 232 1
166 234 9
166 235 7
166 236 4
166 237 8
166 240 2
166 241 5
166 246 4
166 247 6
166 248 3
166 249 10
166 252 5
166 253 7
166 254 4
166 256 7
166 257 5
166 260 3
166 261 10
166 263 9
166 265 3
166 267 4
166 269 6
166 271 4
166 272 1
166 273 1
166 274 3
166 275 7
166 277 9
166 278 8
166 279 10
166 280 10
166 281 10
166 282 9
166 283 10
166 284 1
166 285 9
166 288 8
166 290 6
166 292 8
166 293 9
166 295 4
166 296 6
166 297 4
166 298 5
166 299 5
167 169 8
167 170 4
167 171 1
167 172 5
167 173 4
167 174 4
167 177 10
167 180 8
167 181 1
167 182 4
167 183 9
167 184 9
167 186 10
167 189 6
167 190 7
167 191 10
167 192 6
167 193 6
167 194 7
167 195 4
167 197 10
167 198 10
167 199 4
167 200 10
167 202 10
167 203 8
167 205 6
167 206 1
167 208 5
167 209 9
167 213 5
167 215 2
167 217 4
167 218 4
167 219 4
167 220 8
167 222 1
167 223 4
167 224 8
167 226 7
167 227 3
167 228 2
167 229 6
167 230 2
167 232 5
167 233 2
167 235 3
167 237 2
167 240 8
167 241 9
167 243 8
167 244 9
167 245 5
167 246 7
167 247 2
167 249 5
167 250 6
167 251 8
167 252 7
167 253 3
167 254 5
167 255 10
167 256 9
167 257 9
167 258 4
167 259 3
167 260 7
167 261 3
167 263 4
167 264 9
167 265 2
167 266 4
167 267 4
167 269 9
167 271 8
167 273 1
167 274 4
167 276 6
167 278 1
167 280 1
167 282 2
167 283 9
167 284 8
167 285 2
167 286 1
167 287 3
167 288 8
167 290 10
167 292 10
167 294 2
167 296 7
167 297 2
167 298 8
167 299 10
167 300 8
168 169 6
168 170 10
168 171 7
168 172 9
168 174 7
168 176 9
168 177 1
168 179 5
168 180 3
168 181 8
168 187 7
168 188 2
168 191 4
168 194 5
168 195 4
168 196 1
168 197 4
168 198 2
168 201 3
168 202 10
168 203 3
168 204 8
168 205 10
168 207 3
168 208 8
168 209 2
168 210 10
168 211 5
168 212 9
168 213 9
168 214 6
168 215 4
168 217 2
168 218 1
168 220 2
168 223 3
168 224 8
168 225 2
168 226 3
168 227 10
168 228 10
168 231 1
168 232 1
168 233 1
168 234 8
168 235 4
168 236 10
168 237 8
168 239 3
168 240 3
168 241 8
168 243 9
168 245 4
168 247 7
168 248 10
168 249 1
168 251 7
168 252 8
168 253 7
168 256 10
168 257 2
168 258 2
168 259 6
168 260 8
168 261 10
168 265 8
168 266 8
168 267 4
168 268 6
168 269 10
168 270 8
168 273 5
168 274 3
168 275 8
168 276 4
168 277 10
168 280 10
168 282 1
168 283 8
168 284 6
168 285 10
168 286 5
168 287 2
168 289 8
168 291 1
168 292 7
168 293 1
168 294 7
168 296 8
168 298 10
168 299 8
168 300 5
169 170 3
169 172 5
169 173 1
169 176 2
169 177 7
169 178 7
169 183 9
169 184 9
169 186 5
169 187 5
169 188 1
169 189 10
169 190 10
169 194 5
169 195 7
169 196 1
169 198 5
169 202 1
169 203 5
169 205 7
169 206 8
169 207 5
169 208 7
169 209 1
169 210 5
169 211 4
169 212 4
169 214 7
169 215 10
169 216 7
169 217 7
169 218 5
169 219 7
169 220 5
169 223 10
169 224 9
169 225 8
169 230 4
169 232 6
169 233 5
169 234 5
169 236 7
169 237 4
169 238 6
169 239 4
169 241 6
169 242 10
169 243 3
169 244 6
169 245 6
169 246 4
169 248 4
169 249 6
169 250 2
169 251 10
169 252 5
169 253 1
169 254 8
169 256 8
169 257 7
169 258 3
169 259 10
169 260 3
169 261 2
169 263 6
169 265 1
169 266 3
169 267 7
169 268 2
169 269 9
169 270 7
169 271 1
169 272 6
169 274 10
169 275 8
169 277 1
169 279 10
169 280 2
169 281 6
169 282 10
169 283 2
169 284 7
169 285 10
169 286 9
169 288 10
169 289 7
169 290 9
169 292 10
169 294 6
169 295 10
169 297 3
169 298 9
169 300 6
170 171 7
170 172 3
170 174 8
170 175 4
170 176 6
170 177 8
170 178 7
170 179 3
170 180 10
170 182 1
170 183 10
170 185 8
170 187 10
170 188 10
170 189 8
170 190 10
170 191 6
170 192 5
170 194 4
170 196 3
170 198 2
170 199 5
170 201 2
170 203 4
170 204 9
170 205 3
170 206 6
170 207 2
170 208 7
170 210 7
170 211 3
170 212 2
170 214 4
170 215 9
170 216 8
170 217 8
170 218 5
170 220 5
170 222 2
170 224 8
170 225 3
170 226 9
170 227 6
170 228 5
170 230 1
170 231 8
170 232 10
170 233 7
170 234 5
170 235 6
170 239 5
170 240 2
170 241 2
170 242 5
170 244 7
170 247 4
170 248 9
170 250 4
170 252 6
170 253 8
170 254 2
170 255 7
170 256 6
170 257 2
170 258 3
170 259 4
170 264 8
170 265 4
170 266 6
170 268 8
170 270 9
170 271 9
170 272 5
170 275 1
170 276 2
170 277 6
170 279 8
170 281 9
170 282 7
170 283 4
170 284 10
170 285 4
170 286 5
170 290 2
170 291 2
170 293 1
170 294 4
170 295 9
170 296 9
170 297 3
170 298 1
170 299 2
170 300 5
171 173 9
171 175 7
171 176 5
171 177 9
171 179 5
171 181 2
171 183 8
171 184 4
171 185 4
171 187 3
171 188 2
171 189 4
171 190 8
171 194 10
171 195 4
171 196 5
171 197 9
171 198 4
171 199 4
171 200 10
171 202 2
171 203 10
171 204 3
171 205 10
171 207 7
171 208 4
171 209 9
171 210 6
171 212 10
171 214 8
171 215 5
171 216 5
171 217 2
171 218 10
171 219 10
171 220 7
171 221 4
171 223 5
171 224 2
171 225 8
171 226 10
171 228 1
171 229 10
171 230 2
171 231 9
171 232 5
171 234 6
171 235 7
171 236 7
171 237 4
171 238 2
171 239 7
171 240 6
171 241 1
171 242 3
171 244 7
171 245 3
171 248 1
171 251 8
171 252 6
171 253 4
171 254 3
171 255 5
171 256 4
171 258 1
171 259 1
171 260 5
171 262 4
171 264 4
171 265 9
171 266 8
171 268 6
171 269 8
171 271 3
171 273 6
171 274 1
171 275 8
171 276 3
171 277 4
171 278 8
171 279 1
171 281 5
171 284 1
171 286 10
171 288 7
171 290 10
171 291 3
171 292 8
171 293 8
171 294 6
171 295 1
171 297 4
171 298 8
171 299 10
171 300 8
172 174 9
172 175 8
172 176 7
172 177 7
172 178 3
172 179 10
172 181 8
172 182 9
172 183 10
172 188 4
172 190 6
172 192 9
172 195 4
172 196 9
172 199 4
172 200 1
172 201 6
172 202 2
172 203 5
172 204 2
172 205 7
172 208 7
172 209 3
172 210 1
172 211 1
172 212 3
172 213 1
172 214 2
172 215 2
172 217 8
172 218 2
172 219 2
172 220 8
172 222 5
172 223 1
172 224 4
172 225 2
172 226 8
172 230 5
172 231 2
172 232 9
172 233 9
172 234 8
172 235 6
172 236 1
172 237 8
172 239 5
172 240 7
172 241 1
172 242 7
172 243 8
172 244 10
172 246 2
172 249 5
172 251 7
172 252 3
172 253 2
172 254 1
172 255 8
172 256 4
172 257 1
172 258 4
172 259 4
172 260 4
172 261 5
172 263 2
172 265 2
172 268 8
172 269 7
172 271 2
172 273 7
172 274 10
172 275 1
172 276 4
172 278 5
172 279 7
172 280 4
172 282 10
172 283 9
172 285 10
172 286 4
172 287 2
172 288 9
172 292 5
172 293 9
172 296 9
172 297 5
172 298 1
173 174 2
173 175 8
173 176 9
173 177 2
173 178 4
173 179 10
173 180 10
173 181 5
173 183 5
173 184 8
173 186 10
173 187 10
173 188 4
173 190 1
173 191 2
173 192 9
173 193 3
173 194 10
173 195 6
173 196 6
173 198 3
173 199 1
173 200 6
173 201 5
173 204 5
173 205 8
173 206 10
173 207 10
173 208 8
173 209 3
173 212 4
173 213 4
173 214 8
173 215 3
173 218 7
173 220 1
173 221 7
173 222 2
173 223 4
173 224 2
173 225 7
173 230 10
173 232 4
173 234 8
173 235 10
173 236 4
173 238 6
173 242 8
173 244 5
173 246 8
173 247 1
173 248 2
173 249 5
173 251 8
173 252 3
173 253 8
173 254 1
173 257 8
173 258 1
173 260 10
173 262 5
173 264 7
173 265 1
173 266 4
173 270 7
173 272 4
173 273 5
173 274 5
173 276 7
173 279 8
173 280 8
173 281 10
173 282 5
173 283 6
173 284 5
173 285 9
173 286 5
173 287 1
173 288 4
173 289 5
173 290 8
173 291 4
173 292 7
173 293 5
173 294 8
173 295 8
173 296 4
173 297 5
173 298 7
173 299 8
173 300 2
174 175 6
174 176 8
174 177 2
174 178 10
174 180 4
174 181 5
174 182 2
174 183 3
174 184 8
174 185 10
174 187 5
174 188 8
174 191 7
174 192 1
174 193 1
174 194 6
174 196 7
174 197 5
174 199 1
174 200 8
174 203 2
174 204 9
174 205 5
174 207 4
174 208 7
174 209 9
174 212 5
174 213 9
174 214 10
174 217 8
174 218 8
174 221 2
174 222 4
174 223 6
174 224 8
174 225 5
174 226 5
174 229 4
174 230 2
174 231 3
174 232 7
174 233 3
174 234 8
174 235 9
174 239 1
174 240 8
174 241 8
174 243 2
174 246 1
174 247 8
174 248 8
174 250 10
174 252 2
174 256 5
174 258 8
174 259 8
174 260 6
174 261 5
174 262 10
174 263 4
174 265 4
174 266 8
174 267 8
174 270 2
174 271 7
174 272 4
174 273 10
174 274 8
174 276 7
174 277 8
174 278 3
174 279 7
174 283 7
174 284 2
174 286 3
174 287 7
174 288 10
174 290 6
174 291 5
174 292 4
174 296 6
174 298 4
174 299 4
174 300 6
175 176 8
175 177 9
175 178 4
175 179 7
175 180 1
175 181 5
175 182 8
175 183 5
175 184 1
175 185 7
175 186 10
175 187 9
175 188 9
175 190 3
175 192 6
175 194 6
175 195 10
175 197 9
175 198 9
175 199 4
175 200 7
175 201 3
175 202 4
175 203 2
175 204 2
175 205 4
175 208 5
175 209 5
175 210 2
175 214 3
175 216 10
175 217 7
175 219 6
175 222 10
175 223 7
175 224 6
175 225 7
175 226 1
175 228 4
175 230 9
175 232 10
175 234 7
175 235 7
175 236 1
175 237 10
175 238 7
175 239 10
175 241 5
175 242 5
175 244 6
175 245 7
175 246 7
175 247 8
175 250 4
175 251 8
175 252 8
175 254 8
175 256 6
175 257 6
175 258 6
175 259 10
175 260 2
175 261 9
175 264 1
175 265 1
175 266 10
175 267 9
175 269 3
175 270 1
175 271 5
175 272 8
175 275 9
175 277 6
175 278 7
175 279 3
175 280 5
175 282 1
175 285 10
175 286 3
175 288 7
175 289 10
175 291 10
175 292 3
175 293 2
175 295 3
175 296 4
175 298 10
175 299 10
176 178 1
176 179 1
176 181 3
176 183 1
176 184 1
176 185 10
176 186 7
176 191 3
176 192 9
176 193 8
176 194 4
176 198 9
176 201 1
176 202 8
176 203 5
176 204 10
176 206 8
176 208 1
176 209 1
176 210 1
176 211 4
176 212 6
176 213 7
176 216 4
176 218 1
176 220 10
176 223 9
176 224 7
176 225 4
176 226 6
176 228 9
176 230 7
176 232 4
176 233 5
176 234 5
176 235 4
176 237 10
176 238 9
176 239 7
176 240 5
176 242 10
176 244 6
176 245 4
176 247 8
176 248 2
176 249 5
176 250 5
176 251 6
176 252 10
176 253 6
176 254 10
176 255 8
176 256 1
176 257 3
176 258 7
176 259 3
176 260 5
176 261 2
176 262 3
176 263 5
176 264 7
176 265 1
176 266 1
176 267 5
176 268 1
176 270 9
176 271 8
176 273 6
176 274 7
176 275 2
176 276 8
176 277 5
176 278 4
176 279 7
176 280 7
176 281 2
176 282 8
176 283 1
176 284 2
176 285 5
176 286 6
176 288 2
176 291 7
176 292 3
176 293 4
176 294 5
176 295 6
176 296 1
176 297 9
176 298 8
176 299 6
176 300 6
177 178 7
177 179 8
177 180 10
177 181 5
177 182 7
177 186 1
177 187 10
177 188 1
177 189 4
177 190 2
177 193 1
177 194 10
177 196 5
177 197 5
177 199 4
177 200 6
177 201 7
177 202 1
177 208 5
177 209 7
177 210 1
177 211 9
177 212 3
177 213 9
177 214 2
177 215 9
177 216 1
177 217 8
177 220 6
177 221 2
177 222 6
177 223 4
177 224 5
177 225 2
177 226 9
177 227 2
177 228 10
177 232 9
177 233 7
177 234 5
177 235 3
177 236 3
177 237 4
177 238 4
177 240 9
177 241 3
177 242 9
177 243 3
177 244 5
177 245 9
177 249 5
177 250 2
177 252 1
177 253 9
177 254 1
177 255 8
177 256 6
177 259 8
177 262 1
177 263 8
177 265 3
177 267 5
177 271 6
177 272 1
177 274 8
177 275 7
177 276 2
177 277 9
177 278 8
177 279 8
177 280 9
177 282 7
177 283 3
177 284 9
177 285 5
177 289 9
177 292 8
177 293 4
177 294 3
177 298 10
177 299 2
177 300 4
178 179 6
178 180 7
178 182 3
178 183 7
178 184 9
178 186 3
178 187 1
178 188 9
178 190 2
178 191 8
178 192 4
178 193 10
178 194 4
178 195 4
178 196 2
178 198 2
178 199 8
178 200 6
178 201 1
178 203 3
178 206 8
178 207 1
178 208 2
178 209 3
178 210 9
178 213 6
178 214 2
178 216 6
178 217 6
178 218 5
178 219 4
178 220 5
178 221 9
178 223 3
178 224 7
178 225 10
178 228 5
178 230 5
178 232 10
178 233 4
178 234 8
178 235 7
178 236 10
178 237 10
178 238 4
178 239 5
178 241 8
178 242 4
178 244 6
178 245 2
178 246 1
178 249 4
178 250 7
178 253 6
178 254 4
178 255 3
178 257 3
178 258 3
178 259 5
178 260 1
178 261 4
178 262 3
178 264 8
178 265 6
178 266 6
178 267 7
178 268 1
178 270 10
178 271 8
178 272 6
178 273 3
178 274 5
178 275 5
178 279 4
178 280 4
178 281 5
178 282 6
178 283 7
178 284 1
178 287 10
178 288 4
178 289 8
178 290 6
178 292 2
178 293 7
178 294 3
178 295 9
178 297 4
178 300 4
179 180 4
179 181 7
179 182 8
179 184 2
179 185 7
179 186 3
179 187 9
179 191 7
179 193 9
179 194 5
179 195 6
179 196 1
179 198 6
179 200 5
179 201 4
179 202 8
179 204 3
179 206 9
179 208 8
179 210 6
179 211 5
179 213 10
179 214 10
179 216 8
179 217 1
179 219 7
179 220 1
179 222 3
179 223 3
179 224 1
179 225 4
179 227 1
179 231 5
179 232 5
179 234 7
179 235 10
179 236 5
179 237 6
179 240 3
179 241 8
179 242 1
179 243 6
179 244 2
179 245 10
179 248 4
179 249 8
179 250 10
179 251 9
179 252 7
179 254 1
179 255 9
179 256 9
179 257 8
179 258 4
179 260 3
179 261 2
179 262 10
179 264 2
179 265 2
179 266 8
179 267 5
179 269 4
179 270 5
179 272 4
179 273 9
179 274 8
179 275 4
179 276 2
179 277 5
179 278 6
179 282 5
179 283 9
179 285 9
179 287 5
179 288 2
179 290 9
179 291 4
179 297 7
179 298 7
179 299 6
179 300 1
180 182 7
180 184 9
180 185 6
180 187 4
180 188 8
180 189 4
180 190 9
180 192 10
180 193 2
180 194 6
180 195 6
180 196 4
180 198 8
180 202 6
180 203 3
180 204 3
180 205 8
180 206 4
180 207 10
180 208 9
180 210 8
180 212 10
180 216 6
180 218 2
180 220 9
180 222 10
180 223 7
180 224 2
180 227 2
180 228 2
180 229 4
180 230 9
180 231 4
180 232 10
180 235 3
180 237 10
180 238 4
180 239 8
180 241 8
180 242 9
180 247 5
180 249 5
180 251 7
180 252 4
180 253 6
180 254 2
180 255 10
180 256 8
180 258 2
180 259 10
180 261 10
180 262 4
180 264 7
180 265 5
180 267 10
180 268 10
180 269 7
180 270 5
180 271 4
180 273 9
180 274 6
180 277 3
180 279 6
180 280 2
180 281 6
180 283 5
180 284 9
180 285 5
180 286 5
180 287 7
180 288 6
180 289 3
180 290 6
180 291 4
180 292 7
180 293 1
180 295 3
180 297 2
180 299 3
180 300 6
181 182 9
181 183 5
181 184 2
181 185 6
181 186 3
181 187 4
181 188 4
181 189 8
181 191 6
181 192 8
181 193 3
181 194 5
181 195 1
181 199 10
181 200 2
181 201 9
181 204 4
181 206 6
181 207 4
181 209 6
181 210 9
181 212 7
181 213 2
181 214 3
181 215 5
181 218 1
181 219 3
181 222 9
181 223 10
181 225 2
181 226 2
181 229 5
181 230 6
181 231 10
181 234 10
181 236 8
181 238 4
181 240 6
181 241 6
181 243 8
181 245 9
181 247 6
181 248 5
181 249 5
181 250 6
181 252 8
181 253 6
181 254 2
181 256 2
181 257 1
181 260 10
181 261 6
181 262 8
181 265 9
181 267 10
181 268 6
181 269 3
181 270 6
181 271 5
181 273 3
181 276 5
181 277 8
181 278 3
181 280 3
181 281 8
181 284 10
181 287 6
181 288 1
181 290 3
181 292 10
181 293 6
181 297 3
181 298 8
181 300 6
182 183 4
182 184 4
182 188 6
182 189 3
182 193 5
182 195 5
182 196 10
182 197 5
182 198 8
182 201 2
182 202 6
182 204 1
182 207 7
182 208 5
182 209 3
182 210 7
182 211 4
182 212 6
182 213 1
182 215 5
182 217 10
182 218 4
182 219 10
182 221 10
182 223 6
182 224 6
182 225 1
182 226 5
182 228 1
182 230 4
182 234 10
182 235 8
182 236 1
182 237 1
182 238 9
182 240 5
182 241 2
182 242 10
182 243 6
182 245 1
182 246 1
182 247 10
182 249 5
182 250 7
182 252 9
182 253 3
182 254 9
182 255 6
182 258 4
182 259 10
182 260 6
182 261 6
182 262 9
182 263 3
182 266 6
182 267 5
182 268 2
182 271 4
182 273 2
182 274 9
182 275 10
182 276 4
182 278 9
182 279 1
182 281 5
182 284 10
182 285 10
182 286 1
182 287 10
182 289 1
182 291 8
182 292 7
182 293 8
182 295 9
182 296 7
182 297 6
182 298 6
182 299 5
182 300 4
183 184 1
183 185 10
183 188 10
183 189 2
183 190 2
183 191 9
183 192 3
183 193 8
183 194 4
183 195 9
183 197 9
183 198 3
183 199 7
183 201 10
183 202 9
183 204 8
183 205 3
183 206 8
183 207 5
183 208 5
183 209 1
183 210 5
183 212 9
183 213 10
183 214 6
183 215 3
183 216 1
183 218 4
183 220 1
183 222 9
183 223 2
183 224 10
183 225 3
183 229 3
183 230 4
183 231 4
183 233 6
183 234 9
183 237 3
183 240 9
183 242 7
183 243 2
183 246 5
183 247 6
183 248 10
183 249 3
183 250 1
183 252 5
183 254 3
183 255 1
183 256 1
183 257 6
183 258 5
183 259 6
183 261 3
183 262 10
183 265 10
183 266 2
183 267 4
183 268 10
183 269 5
183 270 5
183 271 6
183 273 6
183 274 8
183 275 4
183 276 2
183 279 4
183 280 9
183 281 10
183 282 3
183 283 2
183 284 8
183 285 7
183 286 2
183 287 9
183 289 9
183 291 2
183 292 9
183 295 10
183 297 10
183 299 8
184 186 7
184 188 2
184 191 10
184 192 10
184 193 6
184 196 6
184 200 2
184 201 3
184 202 8
184 203 4
184 205 9
184 206 5
184 207 8
184 208 5
184 209 2
184 210 4
184 211 8
184 212 2
184 214 8
184 215 1
184 216 6
184 217 3
184 218 2
184 219 9
184 221 3
184 223 5
184 227 3
184 228 6
184 229 8
184 230 4
184 231 3
184 232 4
184 234 5
184 236 7
184 237 7
184 239 4
184 240 7
184 241 8
184 242 10
184 243 7
184 244 9
184 245 8
184 247 1
184 248 8
184 249 9
184 250 6
184 251 10
184 252 5
184 255 9
184 256 5
184 257 1
184 258 10
184 259 1
184 260 5
184 261 6
184 263 8
184 264 4
184 265 8
184 266 3
184 267 9
184 269 1
184 270 4
184 272 7
184 275 7
184 276 3
184 277 1
184 278 10
184 281 6
184 284 7
184 285 7
184 287 6
184 289 10
184 290 9
184 292 3
184 293 8
184 294 6
184 296 9
184 298 5
184 299 1
184 300 8
185 188 3
185 189 6
185 192 6
185 193 6
185 196 2
185 197 2
185 200 9
185 201 6
185 202 5
185 203 4
185 205 6
185 207 6
185 208 1
185 209 5
185 210 4
185 211 2
185 212 4
185 215 3
185 216 7
185 217 7
185 218 8
185 220 1
185 224 3
185 225 6
185 226 10
185 227 4
185 228 3
185 229 10
185 232 3
185 233 3
185 235 3
185 237 2
185 239 10
185 240 9
185 241 9
185 243 6
185 244 7
185 245 2
185 246 10
185 247 2
185 249 3
185 250 7
185 254 2
185 257 5
185 259 2
185 260 7
185 261 7
185 262 1
185 263 6
185 264 6
185 267 6
185 270 8
185 271 6
185 272 3
185 273 10
185 275 2
185 279 6
185 280 10
185 282 9
185 283 5
185 284 10
185 285 6
185 286 9
185 287 3
185 289 10
185 290 1
185 293 10
185 294 6
185 295 4
185 296 5
185 297 7
185 298 6
185 299 9
185 300 6
186 188 2
186 189 1
186 190 5
186 191 9
186 192 5
186 195 5
186 196 2
186 197 2
186 199 2
186 200 1
186 202 10
186 204 6
186 205 6
186 207 4
186 208 10
186 209 9
186 210 9
186 211 10
186 213 1
186 214 7
186 215 1
186 219 3
186 220 7
186 223 1
186 225 10
186 226 9
186 227 1
186 231 3
186 232 10
186 233 2
186 235 7
186 236 3
186 238 3
186 240 4
186 241 2
186 243 3
186 244 8
186 246 9
186 249 6
186 250 8
186 251 1
186 252 9
186 253 1
186 254 6
186 255 7
186 261 9
186 262 2
186 263 10
186 264 4
186 265 3
186 266 10
186 267 7
186 268 8
186 269 1
186 270 9
186 271 10
186 272 2
186 273 2
186 274 7
186 275 4
186 279 9
186 281 2
186 282 2
186 285 1
186 287 9
186 289 3
186 292 7
186 293 8
186 294 5
186 296 4
186 298 9
186 299 4
187 188 5
187 189 9
187 190 5
187 191 9
187 192 6
187 194 2
187 196 3
187 197 6
187 198 5
187 199 4
187 200 8
187 201 7
187 202 8
187 203 6
187 204 5
187 205 7
187 208 7
187 209 6
187 211 1
187 213 7
187 216 4
187 219 3
187 223 9
187 224 5
187 225 10
187 226 7
187 227 6
187 228 6
187 229 4
187 230 7
187 232 6
187 233 1
187 234 3
187 235 8
187 236 1
187 237 8
187 238 10
187 239 9
187 240 1
187 241 2
187 242 9
187 243 4
187 246 1
187 247 6
187 250 1
187 251 8
187 253 10
187 254 1
187 259 5
187 260 5
187 261 8
187 263 3
187 264 8
187 265 7
187 266 7
187 268 4
187 270 4
187 273 5
187 274 8
187 275 8
187 277 5
187 279 5
187 280 10
187 281 4
187 283 4
187 284 5
187 285 9
187 286 4
187 287 2
187 289 9
187 291 9
187 292 9
187 293 6
187 294 6
187 296 8
187 297 6
187 298 10
187 299 1
187 300 10
188 189 8
188 190 9
188 191 9
188 192 2
188 193 3
188 194 10
188 196 8
188 197 5
188 198 6
188 201 8
188 202 4
188 204 2
188 205 10
188 206 8
188 207 4
188 208 8
188 209 9
188 210 5
188 211 5
188 212 2
188 215 6
188 216 2
188 218 10
188 219 3
188 220 6
188 222 9
188 223 6
188 225 4
188 226 4
188 227 4
188 228 6
188 229 9
188 230 10
188 231 4
188 232 2
188 233 9
188 234 8
188 235 2
188 236 1
188 237 8
188 238 5
188 239 10
188 242 7
188 243 1
188 245 5
188 247 10
188 249 1
188 251 5
188 252 7
188 253 1
188 254 5
188 257 10
188 259 3
188 260 4
188 261 8
188 262 7
188 263 4
188 264 2
188 265 9
188 267 7
188 268 9
188 269 5
188 270 9
188 271 8
188 272 5
188 273 10
188 275 8
188 276 4
188 277 7
188 282 5
188 284 10
188 285 1
188 286 2
188 287 10
188 288 9
188 289 4
188 290 10
188 291 8
188 292 3
188 294 2
188 295 2
188 296 7
188 298 10
188 299 4
188 300 4
189 190 10
189 191 10
189 192 1
189 193 9
189 196 10
189 199 6
189 200 7
189 202 2
189 203 1
189 204 10
189 205 4
189 207 1
189 208 9
189 209 3
189 211 9
189 216 4
189 217 4
189 219 10
189 220 1
189 221 9
189 222 3
189 223 10
189 224 1
189 225 7
189 227 2
189 228 8
189 229 5
189 230 4
189 231 9
189 232 2
189 233 10
189 234 1
189 235 9
189 236 2
189 239 3
189 240 4
189 241 10
189 242 3
189 243 5
189 244 3
189 245 5
189 246 8
189 247 1
189 248 5
189 249 4
189 250 6
189 252 1
189 253 3
189 255 6
189 256 9
189 258 3
189 261 5
189 265 9
189 266 5
189 267 5
189 268 4
189 269 6
189 270 6
189 272 4
189 273 4
189 274 2
189 276 3
189 277 6
189 279 7
189 282 5
189 283 3
189 286 3
189 287 8
189 289 6
189 290 1
189 291 4
189 292 8
189 296 9
189 297 4
189 298 1
189 299 10
189 300 10
190 192 1
190 193 9
190 194 5
190 196 1
190 197 1
190 198 7
190 199 5
190 200 4
190 201 9
190 203 5
190 204 6
190 205 2
190 206 4
190 207 10
190 208 6
190 210 6
190 211 2
190 212 10
190 213 2
190 214 8
190 215 3
190 216 1
190 217 10
190 218 10
190 219 10
190 220 9
190 221 4
190 222 7
190 223 8
190 224 1
190 225 7
190 226 8
190 228 5
190 229 3
190 231 10
190 233 9
190 234 9
190 235 7
190 237 6
190 238 1
190 239 4
190 240 5
190 242 2
190 243 6
190 244 1
190 245 6
190 246 5
190 247 10
190 248 9
190 250 5
190 251 10
190 252 7
190 256 10
190 257 6
190 258 4
190 259 5
190 260 3
190 262 4
190 263 2
190 265 1
190 266 2
190 267 5
190 269 8
190 270 9
190 271 1
190 273 8
190 274 2
190 275 5
190 279 7
190 281 1
190 282 4
190 284 1
190 285 6
190 287 10
190 289 4
190 290 5
190 293 6
190 294 6
190 295 6
190 297 9
190 298 4
190 299 9
190 300 6
191 194 3
191 195 5
191 197 9
191 198 10
191 199 3
191 200 4
191 202 3
191 203 9
191 204 7
191 205 3
191 206 1
191 207 5
191 208 1
191 209 10
191 210 2
191 213 6
191 214 10
191 215 1
191 216 8
191 217 4
191 218 6
191 219 1
191 220 9
191 222 10
191 223 6
191 227 1
191 229 7
191 230 8
191 233 2
191 234 8
191 236 5
191 238 3
191 239 3
191 240 6
191 241 8
191 242 6
191 243 10
191 244 8
191 245 3
191 246 7
191 247 6
191 250 9
191 252 8
191 253 7
191 254 5
191 255 1
191 257 9
191 258 1
191 259 10
191 260 10
191 262 3
191 263 10
191 264 4
191 265 3
191 266 6
191 267 4
191 268 5
191 269 4
191 270 9
191 271 4
191 272 8
191 276 5
191 278 7
191 279 4
191 280 5
191 281 1
191 284 1
191 285 8
191 286 3
191 288 3
191 289 6
191 290 9
191 293 9
191 295 6
191 296 3
191 297 9
191 298 8
191 299 6
191 300 3
192 193 8
192 196 6
192 197 7
192 198 4
192 199 2
192 204 1
192 206 5
192 207 6
192 208 10
192 210 5
192 212 10
192 213 9
192 214 9
192 215 2
192 216 2
192 217 10
192 219 3
192 221 3
192 222 3
192 223 8
192 224 5
192 225 6
192 226 9
192 228 5
192 229 9
192 230 4
192 232 10
192 233 3
192 235 6
192 236 4
192 237 6
192 238 7
192 240 6
192 241 10
192 243 10
192 244 2
192 246 4
192 247 4
192 248 4
192 250 8
192 252 5
192 253 6
192 254 10
192 255 4
192 258 1
192 260 3
192 261 10
192 262 9
192 265 1
192 266 2
192 267 10
192 269 6
192 270 3
192 272 3
192 274 6
192 280 10
192 282 10
192 283 9
192 285 6
192 286 10
192 287 5
192 288 2
192 289 5
192 290 5
192 291 8
192 292 9
192 293 1
192 294 4
192 295 3
192 296 3
192 297 2
192 298 4
192 299 5
193 194 8
193 195 9
193 196 5
193 197 3
193 198 7
193 199 3
193 200 6
193 201 1
193 202 6
193 203 5
193 206 7
193 207 10
193 208 6
193 209 3
193 212 6
193 213 4
193 214 8
193 216 4
193 218 6
193 220 5
193 221 5
193 222 4
193 223 6
193 224 9
193 225 9
193 226 10
193 227 10
193 229 4
193 230 9
193 232 1
193 234 9
193 237 7
193 239 5
193 240 4
193 242 9
193 243 2
193 244 1
193 245 7
193 247 9
193 249 7
193 251 8
193 252 8
193 253 3
193 254 2
193 255 5
193 256 6
193 257 6
193 258 9
193 259 5
193 260 8
193 262 2
193 266 5
193 268 2
193 269 9
193 271 9
193 272 7
193 273 9
193 274 5
193 275 10
193 276 5
193 280 9
193 281 10
193 284 10
193 285 3
193 286 7
193 288 9
193 289 10
193 290 4
193 291 10
193 292 1
193 293 5
193 294 10
193 296 1
193 297 8
193 298 3
193 299 7
193 300 5
194 195 10
194 196 3
194 197 1
194 198 10
194 199 10
194 201 7
194 202 6
194 203 5
194 204 6
194 205 1
194 206 5
194 207 9
194 208 3
194 212 4
194 213 2
194 214 8
194 215 7
194 216 7
194 219 6
194 220 9
194 221 7
194 222 8
194 223 10
194 224 8
194 225 10
194 226 8
194 227 8
194 228 6
194 230 2
194 231 2
194 232 4
194 234 5
194 235 3
194 236 3
194 237 10
194 241 3
194 242 1
194 243 4
194 244 9
194 245 1
194 246 9
194 251 7
194 252 4
194 253 2
194 254 7
194 255 7
194 257 10
194 258 4
194 259 3
194 261 1
194 263 10
194 264 3
194 267 3
194 269 9
194 272 2
194 273 3
194 274 3
194 275 2
194 276 8
194 277 2
194 278 6
194 279 8
194 280 6
194 281 1
194 282 9
194 283 10
194 284 10
194 285 5
194 288 5
194 289 8
194 290 6
194 291 9
194 292 9
194 293 2
194 295 9
194 296 1
194 297 7
194 300 2
195 196 2
195 199 2
195 200 9
195 201 4
195 202 10
195 203 4
195 204 7
195 205 2
195 206 7
195 208 3
195 210 6
195 212 5
195 213 8
195 214 4
195 218 4
195 219 2
195 220 6
195 222 6
195 223 6
195 224 9
195 225 3
195 226 1
195 227 1
195 229 9
195 231 7
195 232 6
195 233 9
195 235 8
195 237 9
195 239 9
195 240 3
195 244 5
195 245 9
195 246 6
195 248 5
195 249 3
195 251 3
195 255 7
195 256 1
195 258 5
195 259 1
195 261 8
195 262 5
195 263 10
195 264 5
195 268 6
195 269 6
195 270 3
195 271 5
195 272 6
195 273 8
195 274 5
195 275 4
195 276 7
195 277 2
195 278 2
195 279 8
195 280 5
195 281 7
195 283 2
195 284 3
195 287 7
195 288 7
195 289 10
195 291 9
195 293 8
195 294 10
195 295 7
195 297 4
195 298 7
195 299 6
195 300 2
196 197 7
196 198 6
196 199 6
196 201 10
196 202 5
196 203 5
196 204 2
196 205 4
196 206 5
196 207 1
196 208 8
196 209 9
196 210 6
196 214 4
196 215 1
196 217 6
196 218 4
196 220 5
196 221 8
196 222 3
196 227 2
196 229 4
196 231 6
196 232 7
196 233 3
196 234 8
196 235 9
196 236 10
196 237 6
196 238 7
196 239 7
196 242 8
196 243 8
196 245 2
196 246 5
196 247 7
196 248 6
196 250 8
196 252 6
196 253 7
196 256 4
196 257 1
196 258 6
196 259 1
196 260 10
196 262 1
196 263 1
196 265 5
196 266 6
196 268 8
196 270 4
196 272 6
196 275 8
196 277 1
196 278 6
196 279 3
196 280 3
196 281 1
196 282 6
196 283 2
196 284 5
196 285 10
196 286 5
196 287 9
196 288 6
196 291 8
196 293 1
196 294 4
196 295 8
196 296 2
196 297 1
196 298 8
196 299 3
196 300 4
197 198 3
197 199 6
197 200 1
197 201 2
197 203 8
197 205 9
197 206 1
197 207 10
197 208 9
197 209 2
197 210 9
197 211 2
197 212 9
197 214 3
197 215 5
197 216 1
197 217 8
197 218 8
197 219 7
197 220 9
197 221 8
197 222 10
197 223 1
197 224 4
197 226 3
197 227 5
197 228 4
197 229 2
197 230 6
197 231 3
197 232 7
197 236 1
197 237 3
197 238 4
197 241 8
197 242 1
197 245 2
197 246 10
197 247 1
197 249 2
197 251 2
197 252 10
197 253 6
197 254 4
197 255 6
197 256 5
197 257 2
197 260 2
197 261 2
197 263 7
197 264 10
197 268 7
197 269 7
197 271 5
197 273 2
197 275 2
197 277 4
197 278 8
197 279 1
197 281 2
197 283 7
197 284 1
197 285 2
197 287 1
197 288 9
197 290 5
197 291 3
197 292 8
197 293 5
197 294 2
197 295 6
197 297 9
197 298 5
197 299 1
197 300 3
198 200 1
198 201 3
198 203 10
198 207 5
198 209 9
198 210 4
198 211 5
198 212 1
198 213 6
198 214 3
198 215 8
198 216 3
198 219 4
198 220 2
198 221 9
198 224 1
198 225 9
198 227 9
198 228 6
198 231 10
198 232 1
198 234 1
198 235 4
198 236 10
198 238 2
198 239 3
198 240 7
198 241 8
198 242 1
198 244 7
198 245 5
198 246 8
198 247 10
198 248 8
198 250 4
198 251 9
198 252 1
198 254 2
198 259 2
198 261 2
198 262 9
198 263 10
198 264 3
198 265 4
198 267 3
198 268 5
198 269 8
198 270 10
198 271 5
198 273 6
198 274 4
198 275 2
198 278 3
198 279 7
198 280 4
198 281 6
198 282 10
198 283 5
198 285 5
198 287 9
198 289 2
198 291 2
198 292 4
198 293 9
198 294 4
198 297 7
198 298 4
198 299 2
199 200 2
199 201 5
199 202 9
199 203 4
199 205 6
199 206 4
199 208 7
199 209 5
199 210 7
199 211 9
199 212 3
199 213 2
199 214 3
199 217 10
199 219 8
199 221 5
199 222 1
199 223 6
199 225 3
199 226 8
199 227 7
199 230 1
199 231 5
199 232 9
199 233 4
199 235 7
199 236 10
199 238 10
199 240 6
199 241 5
199 242 9
199 243 9
199 244 4
199 246 4
199 247 5
199 248 7
199 249 4
199 250 9
199 253 5
199 254 5
199 255 8
199 257 3
199 258 7
199 259 10
199 260 9
199 261 1
199 262 6
199 263 2
199 264 6
199 265 3
199 266 7
199 267 2
199 269 5
199 271 8
199 273 5
199 274 4
199 275 3
199 276 3
199 278 5
199 279 8
199 280 7
199 281 2
199 282 1
199 283 4
199 284 4
199 285 6
199 286 3
199 288 5
199 290 2
199 291 9
199 293 3
199 294 4
199 295 10
199 297 5
199 299 4
200 203 4
200 204 4
200 206 6
200 210 7
200 211 2
200 213 1
200 214 1
200 215 7
200 216 3
200 219 4
200 220 8
200 222 6
200 224 1
200 225 9
200 226 1
200 227 4
200 229 4
200 230 6
200 231 4
200 232 9
200 233 5
200 234 2
200 235 10
200 236 9
200 237 9
200 238 7
200 240 8
200 242 7
200 243 9
200 245 7
200 246 3
200 249 4
200 250 10
200 253 5
200 254 3
200 255 1
200 257 10
200 258 9
200 260 9
200 262 5
200 264 5
200 265 6
200 266 3
200 267 1
200 268 1
200 269 2
200 270 7
200 272 1
200 273 1
200 274 5
200 275 10
200 276 9
200 277 9
200 278 8
200 279 4
200 280 9
200 282 7
200 284 3
200 285 8
200 286 10
200 287 10
200 288 4
200 290 10
200 291 1
200 292 6
200 293 6
200 296 7
200 298 10
200 299 1
200 300 2
201 202 8
201 204 9
201 205 3
201 206 2
201 207 10
201 208 6
201 209 1
201 210 2
201 211 2
201 215 3
201 217 4
201 218 3
201 219 9
201 220 9
201 221 1
201 222 3
201 224 9
201 225 10
201 226 3
201 227 8
201 229 4
201 230 1
201 231 1
201 232 8
201 234 7
201 235 7
201 237 1
201 238 8
201 239 2
201 240 4
201 241 8
201 242 8
201 243 6
201 244 3
201 245 1
201 246 7
201 248 6
201 249 6
201 251 4
201 252 5
201 255 10
201 256 3
201 259 4
201 260 2
201 261 7
201 263 1
201 264 10
201 265 5
201 266 3
201 267 8
201 268 10
201 269 10
201 271 5
201 272 2
201 273 3
201 274 5
201 275 7
201 276 2
201 277 2
201 279 3
201 281 7
201 284 10
201 285 4
201 288 8
201 289 5
201 290 2
201 291 10
201 292 1
201 293 10
201 295 10
201 297 6
201 300 1
202 203 2
202 206 3
202 213 8
202 217 5
202 218 4
202 220 8
202 221 4
202 222 6
202 223 6
202 224 10
202 225 3
202 226 7
202 227 7
202 228 3
202 230 8
202 232 7
202 233 8
202 234 8
202 235 2
202 236 9
202 239 3
202 240 6
202 241 6
202 242 1
202 244 4
202 245 7
202 247 8
202 250 9
202 251 5
202 252 7
202 253 3
202 254 3
202 255 4
202 256 9
202 257 6
202 259 2
202 261 7
202 262 3
202 263 10
202 266 3
202 267 10
202 268 6
202 270 6
202 271 7
202 276 2
202 278 7
202 281 10
202 282 3
202 283 2
202 284 5
202 287 4
202 290 1
202 291 1
202 292 4
202 294 5
202 296 4
202 297 7
202 300 7
203 206 2
203 207 10
203 208 10
203 209 2
203 210 5
203 211 3
203 212 8
203 213 2
203 215 10
203 216 4
203 217 9
203 218 1
203 219 6
203 220 8
203 221 9
203 223 6
203 224 3
203 225 7
203 228 2
203 229 9
203 230 3
203 231 4
203 232 3
203 233 4
203 235 6
203 236 9
203 238 1
203 239 9
203 240 2
203 243 6
203 246 5
203 247 10
203 249 9
203 250 9
203 251 9
203 252 2
203 253 4
203 254 9
203 255 9
203 257 1
203 258 4
203 259 2
203 260 9
203 261 10
203 262 5
203 263 6
203 264 2
203 266 2
203 267 9
203 270 9
203 271 7
203 272 5
203 273 7
203 274 4
203 275 6
203 276 4
203 278 9
203 279 8
203 282 6
203 283 10
203 285 10
203 287 6
203 289 2
203 290 9
203 291 9
203 293 10
203 294 3
203 295 2
203 296 8
203 297 2
203 298 5
203 300 4
204 205 9
204 207 7
204 208 7
204 210 8
204 211 6
204 212 10
204 214 1
204 219 4
204 221 9
204 223 5
204 227 2
204 228 9
204 229 6
204 230 7
204 231 5
204 232 1
204 233 5
204 234 8
204 236 7
204 237 9
204 240 10
204 241 1
204 242 8
204 243 1
204 245 4
204 246 8
204 247 1
204 248 7
204 249 7
204 251 10
204 252 6
204 253 8
204 254 10
204 255 9
204 257 4
204 258 10
204 259 7
204 261 10
204 262 3
204 263 5
204 264 8
204 265 5
204 266 9
204 267 4
204 268 2
204 270 6
204 272 5
204 273 3
204 274 1
204 275 6
204 276 8
204 277 7
204 281 9
204 282 2
204 284 9
204 285 7
204 286 9
204 288 9
204 289 5
204 290 6
204 291 10
204 292 3
204 293 1
204 294 2
204 296 2
204 297 4
204 300 6
205 207 1
205 208 3
205 209 1
205 210 3
205 211 2
205 213 3
205 214 3
205 215 6
205 216 3
205 217 2
205 219 2
205 220 8
205 221 10
205 222 3
205 224 7
205 225 5
205 226 2
205 227 10
205 228 2
205 229 2
205 231 9
205 232 5
205 233 9
205 234 7
205 235 8
205 236 5
205 238 10
205 239 2
205 240 6
205 241 1
205 243 6
205 244 4
205 245 5
205 246 8
205 247 9
205 248 8
205 249 5
205 250 7
205 251 10
205 252 2
205 254 7
205 256 4
205 257 6
205 260 5
205 261 8
205 262 4
205 265 2
205 267 5
205 268 10
205 269 3
205 270 6
205 272 2
205 273 6
205 275 1
205 276 7
205 277 6
205 278 9
205 279 6
205 280 9
205 281 7
205 283 4
205 285 5
205 286 1
205 287 10
205 288 7
205 289 2
205 290 6
205 292 8
205 293 9
205 294 6
205 295 1
205 296 2
205 297 2
205 299 10
206 208 8
206 210 4
206 211 5
206 212 5
206 214 2
206 215 2
206 216 4
206 217 7
206 220 1
206 221 9
206 222 8
206 223 5
206 224 2
206 225 7
206 227 4
206 228 1
206 229 7
206 232 3
206 235 7
206 236 4
206 237 8
206 238 5
206 239 6
206 241 1
206 242 5
206 244 4
206 245 4
206 246 9
206 247 3
206 249 4
206 250 7
206 251 10
206 252 4
206 253 8
206 254 3
206 256 9
206 257 4
206 258 5
206 260 3
206 261 1
206 268 7
206 269 10
206 270 8
206 271 3
206 272 7
206 273 2
206 274 5
206 277 4
206 279 6
206 280 8
206 281 1
206 282 5
206 284 8
206 285 10
206 286 7
206 287 6
206 288 2
206 289 1
206 292 1
206 294 6
206 295 5
206 296 7
206 297 8
206 300 10
207 210 8
207 212 6
207 218 9
207 222 9
207 223 4
207 225 2
207 227 8
207 228 1
207 231 7
207 233 6
207 234 1
207 235 2
207 236 6
207 238 3
207 239 9
207 241 2
207 243 7
207 244 6
207 246 2
207 248 4
207 249 8
207 250 6
207 252 5
207 253 7
207 254 3
207 255 6
207 256 2
207 257 1
207 261 2
207 262 7
207 263 9
207 264 2
207 266 3
207 267 8
207 269 4
207 270 1
207 271 4
207 272 6
207 273 3
207 274 3
207 275 8
207 276 7
207 277 8
207 278 9
207 280 8
207 281 1
207 282 3
207 284 2
207 285 6
207 286 8
207 287 5
207 290 7
207 294 7
207 295 7
207 296 7
207 297 3
207 298 9
208 209 8
208 210 4
208 211 1
208 212 3
208 213 3
208 214 6
208 215 8
208 219 7
208 220 5
208 221 7
208 222 1
208 225 5
208 227 8
208 228 8
208 229 6
208 230 7
208 231 1
208 237 9
208 240 2
208 241 7
208 243 4
208 244 6
208 245 5
208 246 5
208 248 5
208 249 6
208 251 1
208 253 7
208 254 5
208 255 3
208 256 3
208 257 4
208 258 10
208 259 1
208 260 1
208 262 4
208 264 9
208 266 5
208 267 2
208 268 7
208 271 7
208 272 3
208 273 2
208 274 1
208 276 5
208 278 8
208 279 5
208 280 7
208 281 8
208 284 8
208 288 4
208 289 1
208 290 3
208 291 4
208 292 2
208 297 5
208 298 9
208 300 8
209 210 7
209 211 2
209 212 7
209 213 9
209 214 10
209 215 1
209 217 6
209 218 9
209 219 6
209 220 3
209 221 1
209 222 6
209 223 10
209 224 2
209 225 10
209 226 10
209 227 8
209 228 8
209 229 1
209 230 10
209 231 9
209 232 5
209 234 5
209 235 7
209 236 4
209 238 1
209 239 4
209 241 7
209 244 6
209 245 5
209 246 1
209 247 1
209 248 7
209 249 1
209 251 4
209 253 7
209 255 1
209 257 2
209 260 4
209 262 7
209 263 8
209 267 6
209 269 7
209 270 3
209 271 5
209 273 10
209 274 8
209 276 9
209 280 8
209 282 4
209 284 10
209 285 6
209 286 4
209 287 7
209 288 3
209 289 8
209 290 10
209 293 10
209 294 9
209 296 2
209 298 5
209 299 8
209 300 5
210 212 6
210 214 4
210 215 7
210 216 3
210 217 9
210 218 10
210 219 10
210 220 7
210 221 2
210 222 9
210 224 3
210 225 6
210 226 1
210 229 3
210 232 9
210 234 2
210 235 10
210 236 7
210 237 7
210 240 2
210 243 2
210 245 3
210 246 3
210 247 1
210 250 3
210 251 9
210 252 7
210 253 9
210 255 4
210 256 9
210 257 3
210 258 3
210 259 8
210 260 10
210 261 2
210 262 5
210 263 7
210 264 7
210 265 3
210 266 7
210 267 5
210 268 8
210 271 8
210 272 4
210 273 9
210 275 9
210 277 6
210 278 1
210 279 8
210 280 8
210 281 5
210 283 5
210 284 7
210 285 8
210 286 8
210 288 8
210 289 10
210 290 8
210 291 6
210 292 3
210 294 4
210 295 1
210 296 2
210 297 4
210 298 10
210 299 5
211 212 10
211 213 5
211 214 1
211 215 9
211 216 2
211 217 1
211 218 5
211 219 2
211 220 8
211 222 9
211 223 4
211 224 8
211 227 1
211 228 6
211 229 3
211 230 4
211 231 2
211 232 6
211 233 8
211 234 7
211 236 8
211 237 3
211 239 9
211 241 7
211 242 8
211 243 7
211 244 6
211 245 5
211 246 6
211 247 7
211 248 2
211 250 4
211 252 9
211 253 9
211 254 3
211 255 8
211 258 10
211 259 9
211 260 7
211 261 1
211 262 6
211 263 5
211 264 4
211 265 4
211 266 9
211 268 10
211 269 4
211 270 6
211 271 6
211 273 5
211 274 3
211 275 8
211 277 6
211 278 5
211 279 4
211 280 8
211 282 7
211 285 3
211 287 8
211 288 2
211 289 8
211 292 5
211 293 4
211 294 4
211 295 6
211 296 5
211 297 7
211 298 6
211 299 10
211 300 3
212 215 6
212 216 4
212 217 2
212 218 5
212 220 7
212 221 8
212 222 1
212 223 9
212 225 7
212 226 7
212 227 8
212 229 4
212 232 4
212 233 7
212 234 10
212 235 6
212 237 8
212 238 2
212 240 6
212 241 6
212 242 4
212 243 7
212 244 1
212 245 1
212 247 2
212 249 10
212 251 7
212 252 7
212 253 7
212 254 5
212 255 9
212 256 6
212 257 2
212 259 8
212 260 1
212 261 5
212 262 6
212 263 6
212 264 8
212 265 1
212 266 6
212 267 1
212 268 2
212 269 10
212 270 5
212 271 2
212 272 1
212 273 1
212 274 5
212 280 6
212 281 6
212 282 8
212 283 6
212 289 6
212 291 5
212 293 5
212 294 8
212 295 1
212 296 1
212 297 6
212 298 9
212 299 7
213 214 2
213 215 10
213 216 6
213 217 2
213 218 8
213 219 4
213 220 1
213 223 4
213 224 5
213 225 9
213 226 2
213 228 9
213 229 10
213 231 1
213 232 3
213 235 8
213 236 2
213 237 5
213 239 1
213 240 9
213 242 10
213 243 1
213 244 9
213 245 3
213 247 1
213 250 5
213 251 9
213 252 2
213 254 8
213 255 5
213 256 3
213 257 1
213 258 8
213 259 9
213 261 4
213 264 1
213 266 4
213 267 3
213 269 4
213 272 6
213 275 2
213 277 1
213 279 10
213 280 10
213 281 3
213 282 4
213 283 10
213 285 4
213 286 3
213 287 10
213 289 6
213 290 5
213 291 1
213 292 1
213 293 7
213 294 5
213 295 1
213 296 8
213 297 6
213 299 7
213 300 7
214 217 1
214 219 2
214 220 1
214 221 3
214 223 6
214 224 1
214 225 9
214 227 6
214 230 10
214 232 8
214 233 6
214 234 5
214 235 10
214 237 7
214 238 7
214 239 2
214 241 7
214 243 8
214 244 5
214 246 2
214 247 7
214 249 8
214 251 2
214 252 10
214 253 5
214 254 3
214 255 10
214 257 6
214 258 4
214 260 4
214 261 8
214 262 7
214 263 5
214 264 3
214 266 2
214 267 2
214 268 9
214 269 8
214 270 8
214 272 10
214 273 4
214 274 9
214 275 4
214 276 4
214 277 9
214 279 4
214 281 5
214 282 2
214 284 1
214 285 4
214 286 8
214 287 3
214 288 4
214 289 5
214 290 2
214 291 5
214 293 4
214 294 1
214 295 8
214 296 8
214 297 5
214 298 1
214 300 6
215 216 9
215 217 8
215 220 2
215 222 5
215 223 1
215 224 1
215 226 7
215 227 6
215 228 5
215 229 8
215 230 2
215 231 5
215 232 2
215 233 8
215 234 2
215 235 10
215 236 10
215 237 3
215 238 3
215 240 10
215 242 9
215 244 2
215 245 9
215 246 8
215 249 10
215 250 9
215 254 5
215 255 8
215 257 7
215 258 9
215 259 8
215 261 4
215 262 2
215 263 2
215 264 1
215 266 4
215 267 3
215 268 2
215 269 8
215 271 10
215 274 10
215 275 7
215 276 3
215 277 4
215 280 6
215 281 7
215 287 4
215 289 5
215 290 5
215 291 2
215 292 6
215 293 1
215 295 2
215 296 3
215 297 4
215 298 7
215 300 1
216 218 1
216 221 7
216 222 1
216 223 6
216 224 2
216 225 6
216 227 3
216 229 9
216 230 2
216 231 2
216 232 6
216 234 3
216 235 6
216 236 7
216 238 9
216 239 8
216 240 2
216 241 1
216 243 5
216 244 8
216 246 1
216 248 9
216 249 8
216 250 8
216 251 10
216 252 1
216 254 5
216 255 4
216 256 10
216 257 9
216 258 5
216 259 6
216 260 2
216 261 3
216 262 7
216 263 1
216 265 9
216 267 9
216 268 9
216 269 1
216 270 4
216 271 9
216 273 1
216 274 5
216 275 7
216 278 2
216 279 9
216 280 3
216 281 3
216 282 6
216 283 6
216 284 3
216 285 3
216 286 1
216 287 4
216 288 6
216 289 1
216 291 5
216 293 2
216 295 10
216 297 1
216 299 5
216 300 1
217 218 3
217 219 9
217 221 3
217 222 4
217 223 6
217 225 5
217 226 4
217 227 4
217 228 6
217 229 8
217 230 7
217 231 10
217 232 4
217 233 10
217 234 6
217 235 4
217 236 3
217 238 3
217 239 9
217 240 5
217 241 1
217 242 8
217 244 3
217 246 6
217 247 9
217 248 5
217 250 3
217 255 5
217 257 8
217 258 8
217 259 2
217 260 7
217 261 5
217 262 3
217 263 4
217 264 5
217 267 3
217 268 2
217 269 2
217 270 5
217 271 3
217 274 7
217 276 10
217 278 1
217 279 4
217 280 1
217 281 7
217 283 8
217 284 4
217 285 4
217 287 10
217 288 5
217 289 10
217 291 3
217 292 2
217 293 4
217 294 8
217 295 9
217 297 7
217 298 9
217 299 3
217 300 1
218 219 1
218 221 1
218 224 9
218 225 7
218 226 10
218 227 4
218 228 4
218 229 3
218 231 8
218 232 1
218 233 1
218 236 5
218 237 2
218 240 5
218 241 1
218 243 1
218 244 10
218 245 5
218 248 5
218 249 9
218 250 2
218 251 1
218 252 4
218 253 3
218 255 3
218 257 10
218 258 9
218 259 5
218 260 1
218 264 1
218 265 5
218 267 1
218 269 7
218 271 10
218 272 2
218 273 9
218 274 9
218 275 3
218 277 8
218 279 9
218 280 8
218 282 5
218 283 5
218 284 3
218 286 10
218 287 3
218 288 2
218 289 1
218 290 7
218 291 10
218 292 1
218 293 8
218 296 8
218 297 9
218 298 3
218 299 9
219 220 9
219 222 3
219 223 2
219 225 10
219 226 6
219 227 3
219 228 8
219 234 10
219 235 3
219 237 5
219 239 4
219 240 2
219 241 7
219 244 10
219 245 6
219 246 10
219 247 5
219 248 5
219 249 3
219 250 8
219 251 2
219 252 4
219 254 8
219 257 4
219 258 1
219 259 10
219 260 8
219 262 7
219 263 9
219 264 9
219 265 6
219 266 10
219 267 4
219 268 8
219 270 7
219 273 2
219 274 8
219 275 3
219 278 10
219 280 1
219 281 6
219 282 7
219 283 6
219 284 8
219 286 10
219 288 6
219 289 7
219 290 8
219 292 4
219 294 3
219 295 8
219 296 9
219 297 7
219 298 9
219 299 10
219 300 1
220 223 6
220 224 7
220 226 4
220 227 10
220 228 3
220 229 2
220 230 1
220 231 7
220 232 5
220 233 6
220 234 1
220 235 3
220 236 10
220 238 3
220 240 5
220 241 4
220 242 9
220 243 10
220 244 6
220 246 9
220 247 9
220 248 10
220 249 6
220 250 9
220 251 5
220 252 1
220 253 9
220 255 6
220 256 5
220 257 8
220 259 2
220 260 7
220 261 8
220 265 10
220 266 2
220 268 8
220 269 3
220 272 1
220 274 4
220 276 3
220 279 5
220 281 6
220 282 6
220 284 4
220 285 4
220 286 9
220 290 10
220 291 7
220 292 3
220 293 4
220 294 9
220 296 3
220 298 7
220 299 10
220 300 8
221 223 9
221 224 1
221 226 6
221 227 3
221 228 7
221 229 7
221 231 4
221 234 1
221 236 1
221 239 5
221 240 4
221 243 9
221 245 2
221 247 7
221 248 10
221 249 2
221 252 3
221 253 1
221 254 1
221 255 5
221 256 4
221 257 10
221 258 9
221 259 9
221 260 8
221 261 9
221 262 4
221 263 8
221 265 7
221 266 1
221 267 6
221 268 9
221 269 9
221 271 4
221 272 8
221 274 1
221 277 10
221 279 3
221 280 5
221 281 1
221 282 6
221 283 9
221 284 10
221 286 9
221 287 5
221 288 1
221 289 3
221 290 5
221 291 4
221 293 4
221 295 6
221 296 5
221 297 4
221 298 6
221 299 7
221 300 9
222 223 2
222 224 9
222 225 4
222 226 5
222 227 2
222 229 7
222 230 6
222 231 5
222 233 8
222 234 3
222 235 4
222 236 6
222 237 8
222 239 3
222 241 5
222 243 3
222 244 3
222 245 9
222 246 2
222 247 10
222 248 6
222 253 7
222 254 7
222 255 3
222 256 8
222 257 10
222 258 7
222 260 8
222 262 9
222 263 2
222 264 5
222 265 2
222 269 4
222 271 5
222 272 3
222 273 9
222 275 4
222 276 5
222 277 10
222 279 7
222 280 9
222 281 1
222 283 5
222 285 3
222 286 8
222 287 6
222 289 9
222 290 6
222 291 2
222 292 2
222 293 8
222 294 10
222 296 10
222 297 6
222 298 3
222 299 6
223 224 1
223 225 10
223 227 7
223 229 9
223 233 10
223 235 5
223 236 2
223 237 1
223 238 7
223 239 4
223 240 7
223 241 7
223 242 1
223 244 3
223 247 5
223 249 5
223 251 8
223 252 3
223 253 5
223 257 1
223 258 2
223 260 5
223 261 7
223 263 4
223 264 8
223 265 8
223 267 4
223 279 6
223 280 6
223 282 8
223 283 5
223 285 1
223 286 10
223 287 8
223 288 8
223 289 7
223 290 4
223 291 9
223 293 1
223 294 8
223 295 4
223 298 5
223 299 10
223 300 2
224 225 7
224 227 2
224 229 7
224 232 1
224 234 2
224 235 9
224 236 7
224 237 2
224 238 8
224 239 8
224 240 8
224 241 3
224 242 6
224 244 2
224 247 8
224 251 9
224 252 9
224 253 2
224 254 5
224 255 3
224 256 2
224 257 1
224 258 7
224 259 2
224 261 9
224 265 9
224 266 5
224 267 2
224 269 3
224 270 9
224 271 1
224 273 3
224 277 1
224 278 5
224 279 4
224 280 2
224 281 4
224 282 3
224 284 8
224 285 2
224 286 4
224 287 2
224 288 4
224 289 3
224 290 9
224 293 8
224 294 5
224 295 6
224 296 7
224 297 8
224 298 6
224 299 1
225 226 7
225 227 5
225 229 2
225 230 7
225 231 4
225 232 9
225 233 7
225 235 8
225 236 4
225 237 2
225 238 7
225 239 4
225 240 8
225 242 1
225 243 5
225 244 1
225 245 7
225 246 6
225 247 1
225 249 5
225 250 4
225 251 5
225 252 10
225 253 2
225 255 6
225 257 8
225 259 1
225 261 5
225 263 9
225 264 1
225 265 4
225 266 4
225 269 3
225 270 8
225 271 9
225 274 4
225 276 7
225 278 4
225 279 7
225 280 2
225 281 8
225 283 5
225 284 10
225 287 6
225 289 10
225 291 4
225 292 3
225 295 3
225 296 10
225 297 7
225 298 6
225 299 6
225 300 8
226 228 10
226 230 10
226 231 4
226 232 2
226 233 3
226 234 8
226 235 7
226 236 9
226 237 3
226 240 4
226 241 7
226 247 2
226 248 2
226 249 4
226 250 6
226 251 7
226 253 7
226 254 6
226 255 10
226 256 6
226 257 2
226 258 10
226 260 10
226 261 10
226 262 8
226 263 9
226 264 7
226 266 5
226 268 9
226 269 4
226 271 1
226 276 5
226 277 8
226 279 6
226 280 4
226 281 9
226 282 7
226 284 2
226 285 4
226 286 1
226 287 3
226 290 7
226 291 3
226 292 10
226 293 10
226 294 3
226 295 3
226 296 3
226 297 9
226 299 8
226 300 10
227 228 4
227 229 5
227 230 6
227 231 6
227 232 7
227 233 6
227 236 1
227 237 1
227 238 8
227 239 6
227 241 4
227 242 9
227 243 3
227 245 4
227 246 2
227 247 6
227 248 6
227 250 10
227 251 9
227 254 4
227 255 7
227 257 3
227 258 6
227 259 4
227 261 3
227 262 7
227 263 6
227 266 7
227 267 8
227 268 2
227 269 3
227 270 10
227 271 1
227 273 5
227 274 7
227 275 9
227 276 2
227 277 10
227 279 4
227 280 7
227 281 9
227 282 7
227 283 3
227 284 2
227 285 1
227 287 3
227 290 10
227 291 1
227 292 4
227 294 4
227 296 2
227 297 8
227 299 10
227 300 7
228 230 8
228 231 8
228 232 5
228 233 3
228 234 10
228 235 2
228 236 9
228 237 9
228 238 1
228 239 4
228 240 8
228 241 10
228 242 10
228 243 10
228 244 2
228 246 8
228 250 6
228 251 4
228 252 4
228 253 10
228 255 4
228 256 5
228 257 6
228 258 2
228 259 2
228 260 9
228 261 9
228 263 7
228 267 8
228 268 8
228 269 1
228 270 7
228 272 5
228 273 5
228 274 8
228 275 1
228 277 3
228 278 8
228 279 4
228 281 10
228 282 1
228 283 2
228 287 9
228 289 1
228 290 2
228 291 9
228 292 2
228 294 9
228 296 2
228 297 9
228 298 1
228 299 2
228 300 8
229 230 9
229 231 10
229 233 2
229 234 9
229 235 9
229 237 3
229 238 7
229 239 9
229 240 1
229 242 10
229 243 9
229 244 6
229 251 1
229 253 2
229 256 8
229 257 1
229 259 8
229 263 8
229 264 8
229 265 3
229 267 6
229 268 10
229 269 8
229 270 5
229 271 6
229 272 9
229 274 5
229 275 9
229 276 6
229 277 2
229 278 7
229 279 2
229 280 10
229 281 8
229 282 9
229 283 2
229 284 1
229 285 6
229 287 4
229 289 4
229 290 1
229 293 7
229 297 10
229 299 8
229 300 2
230 231 10
230 232 2
230 233 9
230 234 5
230 236 2
230 237 10
230 239 7
230 240 6
230 241 4
230 244 10
230 246 2
230 247 3
230 249 7
230 250 4
230 251 4
230 252 5
230 253 4
230 254 9
230 255 2
230 257 3
230 260 6
230 261 9
230 265 7
230 266 7
230 269 5
230 271 4
230 272 7
230 273 3
230 275 5
230 276 7
230 277 5
230 278 10
230 279 3
230 280 8
230 281 8
230 283 8
230 285 7
230 286 5
230 287 7
230 288 4
230 289 2
230 291 6
230 294 4
230 296 9
230 297 2
230 300 10
231 232 3
231 233 1
231 235 7
231 236 2
231 239 5
231 240 10
231 242 1
231 243 8
231 244 6
231 245 1
231 246 3
231 247 8
231 248 2
231 249 2
231 251 5
231 252 5
231 253 3
231 254 4
231 255 5
231 256 1
231 257 4
231 260 2
231 263 3
231 265 7
231 266 7
231 268 6
231 270 3
231 271 6
231 272 3
231 273 3
231 274 5
231 275 2
231 276 2
231 277 4
231 278 6
231 280 6
231 282 2
231 283 3
231 284 2
231 286 1
231 289 6
231 290 8
231 293 7
231 294 3
231 295 2
231 298 5
231 300 7
232 233 9
232 234 6
232 235 3
232 237 2
232 238 5
232 240 5
232 241 4
232 242 7
232 243 8
232 244 7
232 245 10
232 247 10
232 248 4
232 249 8
232 250 5
232 251 1
232 255 6
232 257 7
232 258 2
232 259 5
232 262 6
232 263 8
232 264 3
232 267 7
232 268 5
232 271 6
232 272 2
232 274 2
232 277 3
232 278 7
232 279 7
232 280 2
232 281 5
232 282 3
232 284 2
232 286 2
232 287 4
232 288 2
232 290 4
232 291 1
232 292 3
232 293 3
232 294 6
232 296 7
232 297 7
232 298 5
233 235 10
233 236 2
233 237 3
233 238 10
233 239 8
233 242 5
233 243 7
233 245 7
233 247 6
233 248 6
233 249 4
233 251 8
233 252 7
233 253 2
233 254 5
233 256 5
233 257 1
233 258 3
233 259 10
233 263 9
233 265 3
233 266 5
233 268 4
233 269 4
233 270 2
233 271 7
233 274 3
233 276 8
233 278 8
233 279 9
233 281 10
233 282 9
233 284 4
233 285 9
233 286 7
233 287 9
233 288 10
233 289 8
233 290 5
233 291 5
233 293 6
233 294 3
233 295 1
233 296 7
233 297 2
233 298 9
233 299 2
233 300 2
234 237 1
234 238 3
234 240 9
234 242 10
234 244 5
234 245 9
234 246 5
234 248 8
234 249 6
234 250 5
234 251 7
234 252 9
234 253 5
234 255 4
234 256 7
234 257 7
234 258 5
234 259 6
234 260 7
234 261 7
234 262 4
234 263 2
234 264 10
234 265 2
234 266 1
234 267 8
234 269 3
234 271 6
234 272 9
234 273 5
234 274 7
234 276 8
234 280 5
234 281 6
234 282 10
234 283 5
234 286 8
234 288 3
234 289 2
234 290 6
234 291 1
234 292 1
234 293 6
234 297 9
235 237 8
235 239 3
235 240 2
235 242 4
235 244 9
235 245 4
235 246 6
235 247 5
235 248 3
235 249 6
235 250 3
235 251 5
235 252 7
235 253 4
235 254 9
235 255 10
235 256 10
235 257 3
235 259 7
235 260 10
235 261 7
235 262 4
235 263 9
235 268 4
235 269 7
235 270 1
235 271 4
235 273 5
235 274 3
235 276 9
235 277 6
235 279 7
235 280 4
235 281 6
235 283 5
235 284 1
235 285 9
235 286 2
235 288 1
235 289 8
235 290 3
235 292 9
235 293 7
235 294 5
235 296 3
235 299 7
236 237 10
236 239 5
236 240 5
236 242 6
236 244 1
236 245 4
236 246 1
236 247 3
236 248 10
236 250 8
236 252 8
236 253 10
236 254 10
236 255 1
236 258 2
236 260 5
236 261 7
236 264 4
236 266 5
236 267 5
236 269 3
236 273 6
236 274 8
236 275 8
236 278 4
236 279 8
236 280 1
236 281 9
236 282 3
236 286 9
236 288 7
236 289 1
236 291 7
236 293 5
236 294 9
236 295 3
236 296 2
236 298 6
236 300 5
237 238 7
237 239 9
237 240 3
237 242 7
237 243 7
237 245 10
237 246 4
237 247 10
237 248 2
237 249 8
237 250 1
237 251 1
237 252 7
237 253 8
237 254 10
237 256 10
237 257 8
237 258 2
237 261 6
237 263 2
237 265 2
237 266 6
237 267 7
237 269 9
237 270 10
237 271 10
237 272 4
237 273 4
237 274 2
237 275 4
237 276 10
237 278 2
237 279 7
237 281 2
237 283 8
237 284 10
237 285 3
237 286 8
237 287 1
237 288 7
237 289 3
237 290 7
237 292 6
237 293 3
237 295 4
237 296 2
237 298 4
237 299 3
237 300 2
238 240 4
238 241 2
238 242 10
238 243 6
238 247 1
238 249 2
238 251 6
238 252 2
238 253 1
238 256 1
238 257 2
238 259 3
238 260 9
238 263 10
238 265 10
238 266 1
238 267 6
238 269 10
238 270 4
238 272 7
238 274 9
238 275 2
238 276 3
238 278 7
238 279 3
238 280 3
238 281 10
238 282 5
238 283 3
238 284 5
238 285 4
238 286 9
238 289 6
238 290 9
238 291 10
238 292 1
238 293 4
238 294 2
238 296 3
238 297 1
238 298 1
238 299 2
238 300 10
239 240 5
239 241 8
239 243 7
239 244 6
239 246 1
239 248 3
239 250 6
239 251 3
239 253 3
239 254 10
239 256 8
239 257 6
239 258 8
239 264 6
239 268 9
239 269 4
239 270 8
239 271 4
239 272 9
239 275 3
239 277 4
239 279 2
239 280 3
239 281 7
239 283 9
239 284 4
239 285 5
239 286 2
239 288 5
239 289 9
239 290 7
239 293 9
239 294 9
239 296 5
239 297 8
239 299 8
239 300 1
240 241 6
240 242 7
240 243 6
240 244 3
240 246 10
240 248 8
240 249 10
240 251 3
240 252 5
240 253 2
240 257 1
240 259 9
240 261 3
240 262 6
240 263 3
240 264 8
240 265 10
240 266 4
240 267 5
240 270 5
240 271 8
240 272 9
240 273 10
240 274 2
240 275 10
240 276 2
240 277 5
240 278 5
240 279 5
240 280 1
240 281 3
240 282 8
240 283 10
240 285 9
240 286 8
240 289 1
240 291 4
240 292 10
240 294 9
240 295 7
240 297 7
240 298 3
240 299 2
240 300 1
241 242 6
241 244 6
241 246 3
241 247 1
241 249 2
241 250 8
241 252 6
241 254 6
241 257 7
241 258 10
241 259 7
241 260 9
241 262 8
241 263 1
241 265 8
241 268 3
241 270 8
241 271 8
241 273 2
241 274 4
241 275 10
241 277 3
241 278 7
241 279 4
241 280 10
241 283 1
241 284 4
241 288 8
241 289 8
241 291 8
241 292 6
241 293 3
241 295 7
241 297 6
241 298 10
242 243 10
242 244 6
242 245 10
242 246 8
242 247 2
242 248 9
242 251 1
242 254 5
242 256 7
242 257 2
242 258 9
242 259 1
242 260 8
242 263 5
242 265 5
242 268 7
242 269 7
242 270 8
242 273 8
242 274 1
242 276 5
242 277 6
242 279 9
242 281 7
242 284 7
242 285 9
242 286 5
242 287 1
242 289 3
242 290 7
242 291 2
242 293 2
242 294 1
242 296 8
242 297 9
242 298 2
242 299 9
242 300 1
243 244 3
243 246 5
243 249 2
243 251 1
243 252 4
243 253 7
243 254 3
243 255 5
243 256 7
243 257 10
243 258 1
243 259 3
243 260 2
243 261 1
243 263 9
243 264 4
243 267 10
243 268 5
243 269 7
243 270 3
243 271 10
243 272 8
243 273 10
243 274 7
243 275 2
243 277 3
243 281 7
243 282 3
243 283 7
243 284 6
243 287 1
243 288 7
243 289 5
243 290 8
243 291 6
243 292 9
243 293 9
243 294 7
243 296 6
243 299 4
243 300 10
244 246 7
244 247 5
244 249 9
244 250 3
244 252 4
244 253 8
244 254 3
244 255 8
244 257 10
244 258 8
244 263 10
244 264 8
244 265 2
244 266 2
244 267 1
244 268 2
244 269 9
244 272 3
244 273 9
244 274 3
244 276 1
244 277 9
244 279 1
244 280 7
244 281 5
244 283 8
244 284 7
244 286 2
244 287 4
244 291 9
244 293 10
244 294 3
244 298 9
244 300 8
245 246 10
245 249 9
245 250 5
245 252 2
245 253 10
245 254 3
245 255 2
245 256 7
245 259 4
245 260 2
245 261 7
245 262 1
245 263 4
245 264 5
245 265 4
245 268 3
245 273 5
245 274 10
245 275 4
245 277 3
245 278 6
245 281 3
245 282 5
245 283 9
245 285 7
245 286 9
245 287 5
245 288 5
245 289 1
245 291 3
245 292 1
245 293 1
245 294 1
245 296 6
245 297 6
245 298 1
245 300 7
246 247 4
246 248 8
246 249 3
246 251 10
246 252 10
246 253 8
246 254 3
246 255 3
246 256 4
246 257 10
246 258 8
246 259 10
246 260 2
246 261 8
246 264 7
246 265 9
246 268 1
246 269 7
246 270 1
246 272 7
246 273 7
246 274 8
246 276 2
246 277 8
246 278 4
246 279 8
246 280 3
246 281 3
246 282 8
246 283 10
246 284 3
246 285 7
246 287 9
246 289 2
246 290 3
246 291 6
246 292 3
246 293 4
246 295 3
246 296 10
246 297 3
246 298 3
246 300 9
247 248 1
247 252 8
247 253 3
247 255 10
247 256 2
247 257 1
247 258 8
247 260 8
247 261 8
247 263 5
247 264 9
247 266 3
247 267 8
247 268 3
247 269 6
247 271 10
247 272 8
247 273 5
247 275 10
247 276 10
247 278 3
247 279 2
247 280 10
247 282 9
247 287 2
247 288 3
247 291 1
247 292 3
247 294 4
247 296 4
247 298 5
247 299 6
248 251 5
248 252 6
248 253 2
248 254 1
248 255 1
248 256 3
248 257 3
248 260 3
248 261 1
248 262 5
248 263 1
248 264 6
248 267 7
248 268 1
248 270 7
248 272 3
248 273 10
248 274 7
248 275 9
248 276 1
248 277 5
248 279 8
248 280 6
248 281 2
248 282 10
248 283 6
248 285 1
248 287 3
248 288 3
248 289 1
248 290 7
248 291 9
248 292 6
248 293 10
248 294 8
248 295 1
248 296 9
248 299 4
248 300 6
249 251 8
249 252 4
249 253 4
249 254 5
249 255 2
249 257 9
249 258 2
249 259 8
249 262 2
249 263 3
249 266 2
249 267 8
249 269 5
249 270 4
249 272 7
249 273 8
249 274 2
249 276 8
249 277 5
249 280 9
249 281 6
249 285 8
249 286 5
249 289 6
249 291 10
249 292 1
249 294 5
249 295 10
249 296 10
249 297 1
249 298 7
249 299 5
250 251 4
250 252 6
250 253 7
250 254 7
250 255 10
250 258 3
250 259 1
250 260 9
250 262 8
250 263 9
250 264 2
250 265 5
250 266 6
250 267 5
250 268 5
250 270 1
250 271 8
250 272 4
250 273 4
250 274 3
250 277 5
250 278 5
250 280 10
250 282 8
250 283 4
250 285 4
250 286 2
250 288 5
250 289 2
250 290 2
250 291 8
250 293 10
250 295 1
250 296 2
250 297 8
250 299 9
251 252 1
251 253 4
251 254 4
251 255 6
251 256 2
251 257 7
251 259 9
251 260 6
251 261 9
251 262 1
251 263 4
251 264 2
251 265 1
251 268 2
251 270 5
251 271 5
251 272 4
251 274 7
251 275 5
251 276 7
251 278 10
251 279 10
251 282 8
251 283 6
251 284 7
251 285 5
251 286 7
251 287 8
251 288 10
251 289 5
251 291 7
251 292 9
251 293 10
251 294 4
251 296 7
251 299 6
251 300 6
252 253 2
252 254 9
252 256 1
252 259 6
252 260 5
252 262 3
252 263 1
252 264 6
252 267 5
252 268 5
252 269 10
252 270 5
252 271 3
252 273 2
252 274 10
252 276 9
252 279 8
252 280 10
252 282 7
252 285 5
252 287 9
252 288 4
252 289 1
252 291 8
252 292 2
252 293 2
252 294 10
252 295 1
252 296 5
252 297 2
252 299 9
253 254 10
253 255 10
253 256 8
253 258 10
253 259 3
253 260 1
253 261 6
253 262 5
253 263 8
253 265 4
253 266 6
253 267 5
253 269 7
253 270 9
253 273 2
253 275 2
253 276 8
253 277 9
253 279 8
253 280 2
253 281 10
253 282 3
253 285 3
253 286 6
253 287 4
253 288 5
253 289 7
253 291 8
253 292 9
253 293 10
253 294 1
253 295 2
253 297 2
253 300 9
254 255 5
254 257 7
254 259 2
254 262 8
254 264 1
254 265 8
254 266 6
254 267 6
254 270 9
254 272 1
254 274 7
254 276 5
254 277 7
254 278 3
254 280 6
254 281 8
254 282 2
254 283 5
254 284 3
254 286 8
254 287 1
254 288 2
254 289 10
254 290 9
254 291 10
254 292 4
254 293 6
254 294 6
254 295 7
254 296 8
254 298 9
254 299 6
255 256 3
255 257 1
255 262 9
255 265 7
255 266 9
255 267 5
255 270 4
255 271 1
255 277 2
255 279 2
255 280 5
255 281 8
255 282 6
255 283 9
255 285 8
255 286 6
255 287 3
255 288 2
255 289 10
255 290 6
255 291 7
255 292 5
255 293 3
255 294 6
255 296 10
255 297 9
255 298 2
255 299 6
255 300 8
256 257 6
256 259 3
256 260 9
256 261 5
256 262 6
256 263 10
256 264 6
256 265 1
256 269 7
256 270 10
256 273 8
256 275 2
256 276 9
256 277 1
256 278 4
256 279 2
256 281 9
256 283 5
256 285 3
256 286 9
256 288 6
256 290 7
256 291 8
256 292 6
256 293 7
256 294 6
256 297 9
257 258 6
257 260 4
257 261 5
257 262 1
257 264 6
257 265 2
257 266 10
257 269 6
257 270 2
257 271 1
257 272 10
257 273 4
257 275 2
257 276 10
257 278 2
257 279 9
257 280 8
257 288 5
257 289 6
257 290 5
257 293 2
257 294 4
257 296 7
257 299 8
257 300 4
258 259 8
258 260 10
258 261 7
258 262 8
258 263 9
258 264 6
258 265 8
258 267 8
258 268 6
258 270 8
258 271 1
258 273 3
258 276 1
258 278 7
258 280 6
258 281 10
258 282 6
258 283 1
258 284 5
258 285 1
258 286 3
258 289 3
258 290 5
258 291 10
258 292 5
258 293 1
258 295 5
258 296 7
258 298 7
258 300 9
259 260 6
259 261 3
259 262 9
259 263 9
259 264 4
259 265 2
259 267 4
259 268 6
259 271 10
259 273 7
259 274 2
259 275 7
259 276 10
259 278 6
259 279 6
259 280 8
259 281 8
259 282 8
259 283 6
259 284 4
259 285 7
259 286 5
259 289 7
259 290 10
259 291 7
259 292 10
259 293 9
259 294 4
259 296 3
259 297 1
259 300 3
260 261 4
260 262 3
260 263 6
260 264 7
260 265 9
260 266 1
260 268 6
260 269 9
260 271 8
260 272 8
260 273 4
260 274 5
260 275 5
260 276 1
260 277 6
260 279 10
260 280 8
260 282 3
260 283 6
260 285 4
260 287 10
260 288 8
260 289 10
260 290 6
260 291 6
260 292 7
260 293 6
260 294 2
260 295 9
260 297 2
260 298 2
260 300 10
261 262 6
261 263 8
261 264 10
261 266 3
261 267 10
261 268 5
261 269 6
261 273 4
261 274 5
261 275 9
261 276 9
261 277 7
261 282 1
261 283 3
261 285 3
261 286 10
261 289 8
261 290 2
261 291 1
261 292 8
261 294 10
261 297 8
261 299 7
262 266 1
262 267 9
262 268 9
262 270 10
262 271 10
262 272 5
262 273 9
262 274 10
262 275 3
262 276 7
262 278 2
262 279 7
262 281 4
262 282 7
262 283 2
262 285 2
262 286 9
262 287 5
262 290 4
262 291 4
262 292 2
262 296 5
262 297 1
262 298 3
263 264 10
263 266 6
263 267 10
263 268 10
263 269 10
263 270 6
263 271 7
263 274 5
263 275 3
263 276 4
263 277 9
263 278 7
263 279 9
263 280 6
263 282 3
263 284 7
263 287 4
263 290 1
263 291 3
263 293 8
263 294 8
263 295 3
263 296 5
263 297 5
263 298 7
263 300 10
264 265 1
264 267 6
264 272 2
264 273 5
264 275 2
264 278 10
264 281 1
264 282 4
264 283 4
264 284 6
264 285 6
264 286 5
264 288 3
264 289 3
264 291 2
264 292 5
264 293 8
264 294 3
264 295 5
264 296 3
264 297 8
264 299 6
264 300 10
265 267 8
265 268 3
265 270 1
265 271 7
265 273 2
265 275 8
265 276 8
265 277 4
265 278 4
265 279 6
265 280 2
265 282 6
265 284 6
265 286 2
265 287 10
265 288 6
265 289 3
265 290 10
265 292 5
265 293 8
265 295 4
265 297 5
265 298 9
265 299 1
266 267 3
266 268 6
266 269 8
266 271 9
266 272 7
266 273 3
266 274 3
266 275 3
266 276 7
266 277 5
266 278 8
266 280 9
266 281 7
266 282 9
266 283 1
266 284 2
266 285 8
266 286 3
266 287 3
266 289 3
266 290 5
266 291 10
266 292 3
266 296 5
266 297 8
266 298 10
267 268 8
267 269 4
267 270 6
267 272 2
267 273 2
267 274 9
267 275 7
267 276 3
267 277 10
267 278 1
267 279 3
267 280 6
267 281 2
267 283 2
267 287 3
267 288 1
267 290 9
267 292 5
267 293 5
267 294 7
267 295 3
268 269 1
268 270 4
268 271 5
268 273 6
268 276 3
268 278 7
268 279 1
268 280 4
268 281 3
268 282 7
268 283 8
268 284 3
268 285 2
268 286 7
268 290 6
268 291 2
268 292 5
268 293 7
268 294 4
268 295 2
268 297 10
268 298 6
268 299 7
268 300 10
269 270 8
269 271 6
269 272 10
269 275 8
269 276 3
269 277 4
269 278 3
269 279 10
269 280 2
269 283 10
269 284 1
269 285 2
269 286 7
269 288 5
269 289 6
269 290 8
269 291 5
269 292 8
269 293 4
269 294 4
269 295 5
269 297 5
269 298 7
269 300 6
270 272 5
270 274 4
270 275 10
270 277 4
270 278 8
270 279 9
270 280 8
270 281 10
270 282 3
270 283 4
270 284 1
270 285 9
270 287 1
270 292 4
270 293 2
270 294 3
270 295 2
270 296 5
270 297 2
270 298 10
270 300 1
271 272 1
271 274 6
271 275 2
271 276 10
271 277 1
271 279 2
271 280 7
271 281 5
271 282 6
271 283 1
271 284 1
271 285 2
271 286 3
271 287 3
271 288 9
271 290 5
271 291 1
271 292 2
271 293 9
271 297 10
271 298 1
272 273 2
272 274 5
272 275 5
272 277 8
272 278 2
272 279 5
272 280 3
272 282 1
272 283 6
272 284 1
272 285 5
272 288 2
272 289 8
272 291 1
272 292 7
272 294 6
272 295 4
272 296 2
272 297 7
272 298 7
272 299 3
272 300 3
273 274 4
273 275 6
273 277 2
273 278 2
273 279 7
273 280 5
273 281 3
273 282 1
273 284 9
273 286 8
273 288 7
273 290 9
273 292 3
273 293 10
273 294 9
273 295 7
273 297 9
273 298 8
273 299 8
273 300 9
274 275 9
274 276 8
274 277 10
274 278 1
274 279 3
274 280 10
274 281 10
274 285 10
274 287 3
274 289 8
274 290 10
274 292 10
274 293 1
274 295 8
274 296 9
274 298 1
274 299 7
275 276 8
275 277 10
275 279 1
275 281 4
275 282 8
275 283 9
275 284 8
275 285 6
275 286 9
275 287 1
275 288 4
275 289 9
275 290 6
275 293 1
275 294 6
275 295 3
275 296 5
275 298 1
275 300 3
276 277 10
276 279 7
276 280 4
276 281 1
276 282 6
276 283 4
276 284 3
276 287 5
276 288 8
276 289 5
276 290 10
276 292 4
276 293 7
276 294 10
276 295 2
276 296 10
276 297 5
276 299 2
276 300 4
277 279 10
277 280 6
277 281 8
277 283 9
277 284 5
277 285 2
277 286 10
277 288 1
277 289 4
277 290 5
277 293 1
277 295 2
277 296 5
277 297 6
277 299 5
278 279 1
278 281 5
278 282 6
278 283 4
278 284 10
278 286 9
278 288 1
278 289 9
278 290 8
278 291 2
278 292 6
278 293 10
278 294 6
278 295 9
278 296 2
278 297 8
278 300 4
279 282 1
279 283 9
279 284 5
279 285 9
279 287 9
279 288 6
279 289 4
279 290 6
279 292 1
279 293 4
279 294 8
279 295 4
279 296 6
279 299 4
279 300 10
280 281 2
280 282 8
280 283 7
280 285 4
280 287 7
280 288 2
280 290 9
280 292 7
280 293 5
280 294 6
280 295 9
280 296 7
280 297 5
280 298 7
280 299 6
280 300 9
281 283 10
281 284 5
281 287 8
281 288 6
281 289 9
281 290 6
281 291 3
281 292 2
281 293 2
281 294 2
281 295 10
281 296 8
281 299 3
281 300 5
282 284 7
282 286 10
282 288 4
282 289 9
282 290 8
282 291 8
282 292 1
282 294 2
282 295 4
282 296 8
282 297 5
282 298 9
282 299 9
282 300 2
283 285 2
283 286 5
283 287 1
283 288 7
283 290 6
283 292 2
283 293 8
283 294 10
283 297 9
283 299 4
283 300 6
284 287 1
284 288 9
284 289 10
284 290 9
284 293 8
284 294 2
284 295 8
284 296 4
284 299 8
284 300 10
285 286 1
285 287 2
285 288 7
285 289 4
285 290 4
285 291 8
285 292 4
285 295 7
285 296 4
285 298 3
285 299 10
286 288 4
286 291 10
286 292 10
286 293 10
286 299 10
286 300 1
287 290 1
287 291 6
287 292 3
287 293 1
287 294 6
287 295 9
287 296 9
287 298 10
287 299 7
288 290 1
288 291 3
288 293 3
288 294 5
288 295 10
288 296 9
288 297 3
288 299 9
288 300 4
289 291 7
289 293 4
289 295 3
289 296 7
289 297 8
289 298 10
289 299 1
290 292 9
290 293 10
290 294 8
290 295 6
290 296 5
290 297 7
290 298 5
290 300 9
291 292 10
291 293 10
291 295 10
291 296 9
291 298 10
291 299 5
291 300 9
292 293 10
292 294 10
292 296 7
292 297 1
292 298 3
292 299 1
292 300 3
293 294 4
293 296 6
293 300 10
294 296 8
294 298 2
295 296 8
295 299 4
295 300 8
296 298 6
297 300 2
298 300 10
