300 4485 1100
1
9
2
1
2
1
2
10
3
9
7
1
3
8
7
2
6
3
4
6
4
4
7
5
9
3
10
7
9
5
1
10
5
9
3
9
8
3
4
6
3
9
7
5
5
7
3
3
4
6
10
5
10
10
3
3
8
7
4
5
9
8
2
3
10
6
7
6
7
4
7
4
2
6
4
3
9
4
10
3
10
8
4
2
3
6
2
10
8
1
2
8
9
8
5
6
7
9
5
2
2
4
10
6
9
6
7
7
3
4
1
8
9
3
8
2
10
7
6
1
2
6
4
3
8
6
7
6
5
1
7
7
5
9
5
1
3
6
1
4
9
7
7
9
8
10
8
1
2
4
9
4
8
3
6
4
10
10
4
3
6
1
1
10
7
7
7
2
4
2
6
5
1
6
6
1
7
10
9
1
2
2
8
2
9
2
3
5
4
3
1
9
1
4
7
1
3
1
6
3
1
9
3
10
7
8
1
10
3
10
6
1
1
6
3
6
8
5
1
7
1
1
10
3
6
7
6
9
5
3
3
10
8
10
10
9
3
8
9
4
7
10
9
5
1
1
9
10
2
5
5
3
9
6
8
5
4
1
5
6
10
6
5
5
3
2
9
9
2
5
8
10
10
3
7
1
10
8
5
4
8
1
7
4
7
6
8
1
4
1
7
1
1
8
5
1
9
3
4
6
1 2 8
1 3 1
1 14 8
1 15 9
1 47 7
1 50 7
1 53 2
1 73 3
1 74 7
1 82 6
1 87 5
1 89 5
1 94 8
1 96 5
1 136 6
1 146 3
1 152 8
1 154 3
1 163 9
1 205 7
1 207 7
1 209 2
1 213 7
1 220 6
1 221 3
1 226 1
1 245 2
1 252 4
1 255 3
1 259 4
1 272 2
1 280 4
1 299 3
2 22 3
2 35 8
2 45 6
2 67 7
2 77 5
2 87 6
2 89 3
2 100 8
2 102 5
2 105 5
2 121 8
2 128 9
2 129 8
2 150 9
2 155 4
2 157 7
2 158 7
2 167 5
2 171 9
2 175 4
2 181 3
2 252 5
2 256 6
2 295 7
2 298 10
3 23 6
3 33 3
3 54 1
3 60 9
3 66 3
3 67 9
3 72 6
3 87 4
3 91 4
3 99 1
3 100 6
3 113 9
3 123 6
3 128 7
3 136 4
3 139 7
3 153 2
3 155 8
3 159 5
3 161 3
3 180 2
3 186 3
3 194 5
3 208 10
3 210 5
3 220 9
3 221 9
3 222 10
3 223 8
3 251 1
3 271 9
3 290 3
4 8 1
4 11 5
4 36 6
4 42 6
4 58 6
4 59 2
4 60 3
4 63 6
4 64 2
4 70 4
4 72 5
4 77 5
4 84 6
4 99 4
4 100 9
4 119 1
4 127 10
4 131 9
4 133 5
4 136 7
4 137 4
4 151 7
4 152 1
4 165 10
4 168 9
4 175 9
4 177 6
4 180 4
4 191 10
4 198 1
4 229 7
4 256 4
4 259 9
4 268 5
4 278 8
4 283 9
4 296 2
5 35 3
5 41 7
5 42 4
5 53 8
5 59 3
5 70 2
5 80 1
5 84 10
5 90 8
5 114 10
5 123 4
5 135 3
5 141 3
5 143 4
5 145 3
5 163 5
5 165 5
5 166 9
5 167 10
5 190 5
5 208 3
5 216 8
5 220 7
5 224 6
5 241 6
5 272 2
5 277 2
5 294 8
5 297 5
5 298 9
6 10 3
6 20 1
6 30 9
6 48 2
6 59 10
6 85 10
6 90 10
6 93 6
6 95 3
6 97 6
6 98 4
6 116 1
6 127 6
6 132 9
6 159 3
6 162 5
6 171 6
6 178 9
6 196 10
6 205 6
6 206 7
6 216 7
6 218 3
6 245 2
6 248 10
6 275 5
6 293 6
6 294 2
6 297 3
7 56 2
7 60 10
7 64 4
7 96 10
7 111 5
7 127 10
7 142 8
7 167 2
7 168 4
7 179 10
7 186 10
7 202 4
7 241 6
7 247 10
7 280 2
7 282 7
8 15 1
8 23 3
8 26 7
8 27 4
8 48 10
8 58 10
8 61 9
8 62 1
8 64 3
8 70 3
8 75 4
8 77 5
8 86 3
8 93 10
8 94 10
8 110 5
8 112 6
8 114 9
8 122 10
8 131 8
8 142 3
8 146 7
8 169 6
8 173 9
8 184 7
8 190 9
8 203 3
8 205 8
8 220 8
8 221 5
8 247 6
8 255 1
8 258 10
8 282 1
8 293 8
9 27 10
9 38 3
9 41 2
9 44 3
9 46 10
9 55 3
9 56 3
9 69 3
9 83 1
9 87 3
9 93 2
9 100 8
9 110 9
9 128 6
9 129 2
9 131 2
9 160 8
9 168 1
9 191 6
9 206 1
9 212 5
9 214 10
9 217 5
9 223 7
9 226 10
9 242 2
9 297 10
10 14 8
10 34 1
10 42 9
10 47 8
10 53 10
10 61 10
10 66 9
10 82 9
10 92 8
10 112 10
10 113 9
10 131 7
10 156 3
10 187 10
10 188 4
10 193 9
10 216 10
10 223 3
10 262 5
10 269 4
10 276 2
10 278 5
10 282 1
10 284 9
10 289 10
11 25 4
11 28 3
11 32 9
11 64 7
11 107 2
11 121 9
11 181 3
11 198 10
11 200 7
11 219 4
11 226 9
11 240 7
11 245 8
11 251 4
11 257 2
11 269 9
11 272 8
11 292 1
11 295 3
12 16 1
12 22 6
12 37 3
12 40 10
12 47 7
12 49 5
12 56 1
12 63 7
12 71 3
12 84 9
12 106 5
12 124 7
12 126 1
12 135 2
12 138 5
12 152 2
12 154 5
12 194 6
12 195 6
12 196 6
12 221 2
12 243 7
12 245 7
12 262 6
12 263 1
12 284 9
12 293 5
12 300 8
13 27 3
13 32 2
13 38 7
13 39 5
13 64 9
13 80 2
13 82 7
13 89 2
13 94 3
13 114 7
13 125 5
13 144 10
13 152 6
13 162 7
13 172 8
13 177 3
13 181 5
13 203 10
13 216 10
13 226 3
13 236 7
13 256 7
13 258 8
13 269 10
13 281 8
13 292 3
13 296 8
14 20 5
14 24 6
14 26 8
14 30 3
14 37 2
14 103 7
14 135 5
14 148 6
14 171 7
14 176 2
14 178 8
14 182 10
14 187 4
14 214 8
14 228 2
14 260 9
14 272 8
14 274 1
14 290 8
14 299 1
15 53 4
15 55 9
15 59 4
15 63 4
15 65 4
15 74 1
15 80 6
15 84 9
15 89 2
15 90 2
15 105 6
15 114 2
15 122 3
15 124 4
15 133 3
15 137 8
15 138 2
15 155 10
15 195 5
15 197 5
15 214 10
15 223 1
15 236 6
15 239 2
15 249 2
15 256 8
15 268 8
16 17 5
16 34 2
16 55 10
16 72 6
16 91 4
16 93 1
16 96 5
16 100 8
16 176 7
16 183 4
16 186 7
16 207 6
16 208 7
16 219 4
16 259 3
16 260 1
16 279 6
16 290 6
16 291 2
17 22 2
17 34 8
17 37 6
17 40 10
17 66 3
17 72 8
17 84 7
17 91 9
17 92 1
17 101 1
17 108 3
17 114 6
17 115 7
17 130 2
17 132 9
17 148 5
17 157 7
17 180 10
17 194 6
17 195 5
17 206 10
17 209 5
17 228 1
17 232 2
17 259 7
17 268 7
18 23 5
18 30 7
18 36 6
18 40 6
18 64 4
18 84 10
18 103 5
18 104 8
18 116 10
18 130 3
18 137 1
18 157 3
18 201 8
18 206 6
18 207 5
18 210 3
18 221 2
18 227 3
18 234 3
18 245 1
18 265 3
18 283 6
18 288 8
19 26 3
19 37 7
19 40 5
19 44 9
19 63 1
19 70 9
19 77 6
19 85 10
19 90 4
19 92 7
19 109 9
19 141 2
19 149 1
19 151 1
19 152 2
19 162 6
19 177 5
19 186 2
19 193 8
19 199 5
19 211 9
19 217 7
19 239 4
19 250 1
19 285 9
19 290 1
20 28 6
20 49 6
20 52 3
20 58 4
20 67 10
20 77 5
20 94 8
20 101 3
20 106 6
20 125 3
20 127 1
20 136 5
20 141 3
20 149 5
20 200 2
20 211 3
20 220 8
20 222 10
20 224 6
20 226 9
20 235 1
20 245 10
20 250 4
20 260 4
20 287 3
20 293 8
21 41 5
21 43 9
21 46 7
21 64 7
21 107 1
21 114 8
21 115 5
21 139 1
21 150 7
21 156 1
21 200 8
21 201 5
21 216 6
21 233 3
21 234 9
21 255 8
21 256 6
21 269 7
21 287 7
22 35 9
22 51 8
22 58 5
22 72 8
22 82 10
22 91 1
22 109 10
22 118 9
22 128 2
22 133 9
22 139 8
22 146 5
22 149 4
22 182 1
22 193 7
22 200 3
22 212 3
22 217 7
22 224 2
22 243 8
22 245 9
22 259 3
22 264 10
22 288 10
23 33 10
23 71 4
23 76 3
23 86 6
23 91 3
23 105 9
23 138 3
23 152 1
23 156 4
23 205 6
23 211 5
23 216 3
23 219 3
23 232 1
23 265 1
23 291 10
23 294 1
23 297 2
24 37 4
24 54 10
24 92 2
24 93 7
24 100 6
24 115 3
24 133 7
24 135 4
24 174 3
24 197 2
24 205 3
24 215 3
24 216 6
24 235 2
24 265 6
24 282 7
24 283 2
24 286 7
24 290 5
25 28 10
25 34 10
25 38 6
25 74 4
25 90 5
25 96 1
25 109 7
25 110 5
25 118 1
25 120 3
25 125 6
25 140 8
25 141 3
25 148 6
25 149 6
25 159 6
25 181 10
25 184 4
25 190 4
25 222 10
25 223 2
25 229 6
25 242 3
25 249 5
25 261 6
25 262 8
25 268 2
25 269 3
25 274 6
25 276 4
25 294 5
26 30 7
26 32 9
26 48 7
26 53 6
26 58 5
26 62 4
26 67 1
26 68 3
26 85 1
26 96 4
26 130 8
26 137 4
26 151 2
26 162 9
26 216 3
26 220 2
26 223 4
26 237 3
26 247 3
26 251 5
26 252 4
26 264 6
26 296 5
26 297 1
27 41 4
27 48 4
27 58 6
27 61 10
27 63 5
27 69 7
27 76 6
27 90 1
27 109 7
27 126 3
27 145 1
27 156 2
27 176 6
27 184 2
27 217 8
27 220 2
27 234 4
27 243 1
27 265 3
27 267 10
27 275 9
27 278 4
28 29 10
28 32 8
28 49 8
28 74 5
28 81 5
28 86 7
28 130 2
28 137 6
28 139 7
28 142 7
28 144 9
28 157 6
28 162 1
28 163 10
28 173 8
28 185 3
28 186 6
28 189 8
28 190 5
28 193 9
28 198 4
28 205 8
28 217 9
28 220 8
28 224 5
28 256 6
28 266 1
28 272 4
28 273 2
28 280 7
28 282 6
28 284 6
28 286 7
28 290 4
28 298 5
28 299 8
28 300 5
29 38 7
29 50 4
29 55 4
29 60 3
29 80 4
29 85 3
29 101 7
29 105 4
29 108 2
29 126 9
29 141 5
29 151 9
29 173 1
29 179 3
29 194 1
29 204 9
29 205 10
29 206 7
29 216 3
29 242 7
29 245 8
29 246 7
29 299 8
30 37 10
30 39 8
30 43 6
30 71 9
30 79 9
30 95 6
30 132 4
30 148 2
30 153 1
30 166 10
30 172 8
30 178 7
30 185 5
30 192 4
30 198 1
30 204 7
30 210 2
30 212 8
30 222 3
30 234 10
30 236 7
30 243 1
30 249 3
30 253 7
30 258 7
30 269 8
30 274 10
30 278 5
30 287 1
30 289 5
30 296 7
31 33 8
31 64 9
31 76 1
31 81 1
31 83 8
31 98 1
31 110 2
31 114 2
31 116 4
31 121 9
31 126 2
31 132 9
31 147 1
31 154 2
31 155 10
31 157 6
31 161 4
31 169 1
31 174 3
31 192 3
31 193 10
31 205 6
31 211 9
31 212 5
31 218 6
31 253 10
31 255 9
31 260 7
31 271 9
32 47 10
32 55 2
32 64 5
32 70 4
32 75 9
32 77 2
32 112 9
32 129 4
32 135 8
32 138 4
32 139 8
32 141 10
32 149 4
32 150 5
32 224 3
32 228 7
32 247 8
32 251 4
32 257 3
32 258 2
32 261 6
32 274 1
32 290 5
33 45 9
33 49 4
33 61 1
33 66 10
33 81 2
33 101 9
33 108 6
33 114 2
33 133 1
33 135 7
33 137 1
33 138 4
33 140 2
33 147 2
33 168 8
33 171 5
33 173 10
33 175 7
33 200 7
33 204 2
33 221 3
33 240 3
33 244 6
33 270 3
33 273 3
33 274 10
33 286 10
33 288 1
34 87 9
34 105 8
34 109 6
34 123 10
34 133 6
34 137 10
34 148 10
34 156 2
34 157 2
34 167 2
34 187 3
34 193 7
34 197 9
34 202 6
34 203 2
34 207 9
34 216 6
34 261 4
34 285 7
34 296 4
35 46 6
35 51 8
35 57 7
35 59 7
35 66 7
35 84 9
35 97 1
35 120 10
35 157 3
35 168 7
35 178 3
35 219 3
35 223 6
35 232 6
35 233 6
35 253 7
35 260 3
35 266 3
35 270 1
36 44 1
36 144 3
36 151 3
36 155 3
36 164 6
36 166 8
36 171 9
36 173 2
36 178 10
36 184 8
36 192 6
36 194 3
36 200 5
36 206 6
36 209 7
36 237 9
36 242 5
36 265 6
36 278 2
36 292 2
36 294 4
37 39 7
37 58 4
37 65 3
37 104 7
37 119 5
37 121 7
37 123 5
37 128 7
37 133 3
37 140 3
37 157 9
37 164 9
37 173 10
37 195 3
37 199 5
37 206 1
37 207 6
37 226 9
37 227 5
37 237 8
37 280 3
38 42 10
38 47 10
38 48 7
38 52 9
38 71 2
38 73 1
38 81 2
38 82 10
38 86 6
38 90 1
38 92 3
38 110 9
38 113 1
38 142 5
38 144 8
38 148 7
38 161 1
38 166 5
38 191 5
38 199 3
38 200 8
38 226 6
38 243 6
38 268 5
38 272 4
38 281 5
38 287 3
39 40 5
39 41 10
39 51 1
39 76 7
39 82 2
39 84 6
39 88 8
39 120 10
39 129 3
39 144 7
39 161 2
39 162 4
39 163 9
39 201 2
39 202 7
39 209 8
39 210 2
39 219 4
39 222 8
39 223 5
39 242 8
39 245 6
39 250 3
39 253 10
39 255 5
39 261 9
39 270 2
39 277 8
39 291 6
40 48 10
40 51 4
40 58 9
40 72 8
40 91 6
40 95 7
40 96 5
40 97 10
40 99 5
40 108 10
40 110 10
40 120 7
40 151 3
40 153 7
40 192 2
40 221 6
40 230 8
40 235 2
40 261 8
40 263 6
40 270 2
40 286 4
41 46 5
41 64 10
41 92 1
41 96 6
41 102 5
41 107 4
41 108 7
41 115 6
41 136 10
41 142 4
41 143 7
41 196 2
41 202 5
41 208 4
41 211 2
41 223 4
41 224 10
41 234 4
41 256 4
41 261 2
41 267 10
41 268 4
41 282 7
41 283 5
41 291 7
41 292 5
41 293 5
42 45 2
42 61 3
42 64 9
42 87 7
42 110 10
42 123 8
42 128 1
42 134 5
42 146 4
42 155 3
42 156 3
42 171 2
42 180 1
42 212 5
42 216 9
42 217 2
42 228 7
42 237 9
42 239 2
42 264 7
42 268 6
42 282 5
42 286 7
42 293 4
42 297 4
43 76 9
43 85 10
43 95 1
43 96 2
43 114 2
43 115 4
43 119 10
43 134 6
43 138 4
43 144 4
43 147 9
43 152 2
43 154 5
43 159 8
43 172 3
43 193 7
43 194 2
43 209 8
43 214 3
43 250 6
43 254 10
43 255 6
43 283 7
44 54 10
44 57 2
44 61 2
44 96 5
44 101 3
44 112 5
44 129 2
44 130 6
44 143 8
44 145 4
44 158 7
44 159 3
44 168 4
44 184 3
44 185 7
44 191 7
44 207 8
44 213 8
44 247 1
44 265 5
44 275 9
44 279 10
45 62 10
45 73 1
45 82 9
45 84 10
45 90 4
45 101 4
45 102 9
45 110 8
45 126 7
45 131 6
45 140 3
45 143 10
45 149 5
45 156 6
45 173 4
45 178 3
45 179 10
45 191 2
45 230 1
45 237 6
45 240 5
45 251 4
45 255 7
45 266 6
45 267 7
45 271 5
45 281 1
45 298 9
46 51 3
46 53 8
46 69 7
46 70 7
46 81 3
46 84 3
46 92 1
46 102 1
46 108 9
46 110 4
46 132 4
46 135 10
46 139 3
46 144 8
46 174 10
46 175 3
46 185 5
46 186 5
46 193 6
46 196 6
46 201 4
46 202 5
46 209 10
46 219 2
46 221 4
46 235 2
46 254 1
46 259 3
46 274 10
46 283 2
47 80 7
47 85 8
47 103 7
47 106 5
47 118 7
47 121 2
47 126 8
47 147 2
47 150 4
47 159 6
47 177 2
47 187 2
47 214 5
47 219 6
47 229 4
47 230 3
47 235 1
47 252 4
47 269 10
47 273 9
47 280 8
47 287 10
48 60 7
48 79 5
48 95 8
48 100 5
48 125 5
48 129 1
48 133 6
48 141 3
48 142 6
48 143 4
48 152 1
48 153 6
48 164 2
48 174 6
48 181 5
48 188 5
48 189 6
48 199 7
48 204 6
48 209 6
48 214 1
48 217 3
48 233 5
48 245 9
48 249 5
48 259 2
48 265 10
48 275 8
48 279 10
49 65 1
49 76 6
49 108 6
49 129 9
49 133 6
49 148 1
49 152 2
49 154 7
49 163 7
49 165 8
49 182 9
49 190 3
49 207 2
49 214 7
49 215 6
49 217 6
49 220 4
49 228 8
49 229 9
49 254 5
49 263 3
49 278 6
49 283 8
49 285 2
49 287 3
49 294 8
49 298 8
50 65 10
50 70 4
50 73 10
50 79 2
50 88 3
50 97 4
50 100 9
50 108 10
50 115 4
50 127 1
50 143 10
50 152 3
50 156 1
50 159 10
50 162 1
50 176 7
50 185 7
50 192 5
50 197 5
50 222 8
50 227 2
50 229 3
50 237 10
50 266 2
50 268 3
50 271 1
50 274 6
50 285 2
50 298 6
51 56 4
51 77 3
51 80 8
51 91 4
51 98 7
51 100 5
51 109 7
51 120 8
51 178 10
51 196 6
51 200 3
51 204 10
51 217 6
51 221 10
51 231 1
51 237 6
51 238 7
51 256 8
51 257 9
51 258 9
51 263 3
51 269 2
51 272 7
51 276 5
51 286 5
51 288 5
52 57 2
52 58 9
52 71 6
52 92 6
52 99 10
52 108 10
52 118 10
52 142 10
52 147 2
52 151 6
52 155 4
52 167 6
52 182 10
52 188 4
52 200 4
52 215 8
52 237 5
52 269 2
52 287 8
52 293 5
52 295 5
52 300 8
53 59 6
53 76 2
53 102 5
53 105 2
53 107 3
53 110 6
53 130 2
53 137 4
53 144 3
53 172 4
53 181 3
53 185 6
53 218 8
53 222 8
53 226 2
53 246 6
53 248 6
53 282 4
53 297 7
53 300 9
54 60 3
54 69 2
54 74 9
54 88 1
54 89 9
54 90 3
54 91 8
54 96 5
54 108 9
54 127 5
54 139 6
54 140 3
54 152 4
54 164 7
54 166 8
54 179 10
54 192 2
54 203 5
54 210 1
54 226 4
54 227 6
54 231 10
54 233 5
54 245 4
54 278 2
55 60 8
55 70 2
55 76 3
55 108 9
55 111 9
55 118 9
55 137 4
55 139 4
55 147 8
55 174 4
55 181 10
55 195 4
55 204 4
55 205 6
55 230 3
55 232 7
55 241 8
55 242 7
55 247 10
55 253 1
55 298 8
56 64 1
56 76 5
56 82 5
56 91 8
56 94 3
56 99 9
56 106 4
56 128 6
56 139 3
56 144 8
56 145 4
56 151 8
56 155 5
56 169 2
56 184 10
56 186 6
56 187 10
56 197 1
56 222 7
56 230 7
56 235 2
56 236 10
56 240 10
56 246 9
56 249 6
56 264 7
56 267 5
56 273 2
56 283 7
56 290 10
56 293 2
56 296 4
56 298 4
57 69 9
57 72 4
57 82 2
57 91 7
57 99 9
57 103 5
57 104 6
57 125 2
57 130 1
57 131 7
57 132 8
57 141 6
57 153 7
57 176 3
57 215 2
57 232 10
57 253 6
57 254 8
57 257 2
57 278 2
57 284 10
57 288 1
57 296 2
58 64 7
58 78 9
58 81 10
58 100 8
58 118 2
58 126 9
58 127 6
58 131 2
58 134 10
58 135 7
58 143 10
58 153 6
58 163 10
58 173 4
58 191 7
58 214 9
58 234 1
58 245 8
58 263 6
58 274 6
58 293 3
58 298 2
59 66 1
59 72 9
59 74 1
59 76 2
59 77 5
59 88 10
59 96 6
59 104 2
59 107 6
59 116 7
59 134 6
59 142 2
59 146 4
59 150 4
59 169 5
59 185 9
59 193 4
59 205 2
59 214 3
59 215 6
59 216 3
59 220 3
59 246 6
59 264 6
59 287 5
59 289 8
59 293 2
59 299 7
60 86 10
60 94 1
60 103 3
60 123 7
60 132 3
60 133 5
60 136 2
60 137 1
60 141 10
60 142 5
60 163 6
60 171 8
60 181 7
60 197 10
60 207 5
60 216 5
60 218 1
60 221 8
60 225 1
60 227 6
60 235 4
60 238 3
60 243 6
60 246 7
60 248 3
60 249 10
60 251 2
60 268 6
60 273 8
60 279 4
60 285 10
60 299 8
61 70 8
61 72 4
61 92 7
61 104 4
61 128 6
61 131 1
61 138 7
61 152 7
61 153 4
61 204 8
61 208 1
61 212 6
61 224 7
61 225 5
61 239 3
61 242 4
61 254 3
61 255 10
61 266 4
61 285 7
61 295 10
62 73 10
62 77 9
62 83 1
62 89 9
62 119 4
62 158 9
62 169 8
62 173 8
62 177 10
62 182 2
62 194 2
62 197 10
62 225 3
62 228 6
62 242 3
62 258 6
63 82 6
63 86 7
63 91 1
63 92 7
63 96 7
63 97 5
63 151 10
63 157 2
63 161 8
63 173 7
63 184 6
63 209 6
63 237 4
63 247 3
63 263 8
63 276 8
64 74 10
64 77 8
64 78 1
64 83 4
64 87 8
64 116 10
64 136 8
64 149 1
64 155 4
64 163 8
64 167 9
64 169 6
64 174 7
64 213 4
64 214 5
64 235 5
64 241 3
64 255 1
64 270 10
65 99 6
65 104 6
65 106 9
65 107 5
65 110 4
65 127 1
65 175 4
65 177 1
65 208 10
65 215 4
65 227 1
65 246 3
65 249 6
65 257 2
65 269 9
65 271 5
65 289 5
65 297 2
66 78 9
66 79 6
66 86 3
66 104 4
66 105 1
66 108 9
66 110 7
66 113 7
66 114 1
66 118 6
66 143 4
66 180 3
66 194 2
66 201 3
66 203 8
66 217 2
66 218 6
66 224 5
66 229 3
66 294 1
66 296 6
67 84 4
67 90 5
67 93 3
67 95 3
67 104 10
67 125 10
67 129 8
67 133 9
67 134 7
67 139 5
67 147 9
67 153 8
67 164 9
67 168 1
67 177 7
67 188 5
67 196 2
67 201 1
67 205 1
67 208 9
67 216 9
67 217 9
67 229 6
67 237 4
67 243 4
67 247 4
67 248 4
67 252 10
67 255 5
67 259 4
67 271 6
67 291 9
68 74 6
68 117 8
68 122 4
68 129 2
68 130 3
68 140 9
68 142 5
68 146 9
68 149 8
68 158 6
68 159 5
68 169 9
68 172 2
68 187 3
68 194 6
68 198 4
68 216 8
68 227 4
68 228 7
68 235 1
68 242 1
68 253 8
68 255 2
68 260 7
68 283 1
68 293 10
68 294 3
68 299 3
69 80 9
69 94 5
69 97 9
69 126 3
69 136 9
69 148 4
69 152 6
69 172 4
69 177 5
69 178 10
69 193 1
69 195 3
69 204 10
69 226 2
69 231 6
69 242 3
69 257 2
69 276 2
69 278 3
69 295 8
69 297 6
70 74 8
70 83 9
70 107 2
70 118 8
70 128 8
70 139 3
70 143 5
70 148 4
70 149 2
70 150 3
70 154 7
70 157 9
70 168 6
70 170 4
70 174 7
70 175 7
70 184 9
70 193 8
70 197 5
70 199 1
70 200 9
70 213 6
70 220 5
70 226 2
70 231 7
70 234 5
70 267 4
71 86 7
71 87 7
71 88 7
71 91 2
71 108 5
71 112 9
71 138 1
71 144 8
71 147 9
71 148 9
71 160 3
71 165 9
71 177 5
71 179 9
71 182 7
71 203 5
71 206 2
71 208 2
71 223 2
71 234 2
71 252 8
71 259 8
71 273 10
71 274 10
71 278 2
71 286 1
71 294 5
71 300 1
72 86 7
72 89 8
72 90 9
72 97 5
72 99 9
72 103 4
72 105 10
72 111 4
72 120 4
72 140 6
72 150 9
72 155 8
72 161 4
72 169 4
72 171 7
72 186 2
72 187 3
72 199 4
72 200 4
72 217 2
72 235 1
72 259 6
72 260 4
72 282 6
72 283 10
72 289 7
72 296 10
73 76 9
73 91 9
73 100 4
73 107 9
73 109 2
73 112 3
73 113 7
73 120 9
73 122 10
73 124 8
73 142 3
73 151 3
73 159 6
73 160 7
73 184 8
73 203 10
73 206 9
73 224 3
73 238 5
73 243 7
73 260 3
73 266 7
73 277 1
73 283 9
73 294 3
73 297 7
73 299 10
74 75 3
74 89 1
74 90 3
74 97 3
74 100 9
74 101 9
74 108 6
74 121 8
74 130 5
74 141 10
74 145 5
74 151 4
74 155 2
74 166 7
74 172 6
74 188 7
74 190 4
74 204 8
74 207 6
74 210 2
74 211 6
74 217 4
74 218 5
74 220 3
74 225 6
74 241 1
74 259 10
74 262 6
74 289 8
74 291 2
75 80 2
75 82 5
75 89 3
75 105 1
75 126 9
75 133 8
75 138 8
75 140 9
75 164 7
75 165 9
75 169 10
75 170 9
75 172 8
75 181 5
75 189 5
75 197 9
75 212 10
75 231 7
75 249 7
75 253 2
75 261 4
75 272 10
75 285 3
75 292 10
76 79 10
76 87 1
76 89 8
76 93 10
76 97 2
76 105 10
76 131 6
76 152 7
76 156 6
76 169 5
76 171 3
76 172 1
76 180 3
76 186 8
76 191 3
76 206 10
76 215 4
76 216 6
76 217 3
76 220 10
76 223 5
76 224 7
76 236 1
76 241 4
76 262 8
76 279 6
76 280 1
77 81 10
77 84 1
77 86 7
77 91 1
77 95 3
77 96 9
77 97 10
77 100 10
77 101 9
77 102 1
77 117 5
77 123 10
77 134 3
77 138 3
77 145 9
77 172 10
77 192 1
77 209 10
77 213 5
77 218 7
77 221 5
77 224 2
77 226 2
77 232 10
77 260 4
77 264 6
77 283 7
77 291 2
77 299 5
78 85 9
78 131 2
78 133 7
78 136 6
78 138 4
78 147 4
78 163 3
78 172 5
78 213 3
78 224 1
78 232 10
78 233 7
78 242 8
78 272 6
78 280 9
78 299 3
79 90 9
79 97 7
79 100 7
79 114 3
79 120 6
79 141 1
79 143 1
79 153 2
79 159 5
79 163 8
79 169 1
79 181 8
79 185 10
79 197 10
79 206 6
79 207 8
79 219 10
79 220 10
79 239 6
79 243 7
79 262 3
79 282 5
80 87 4
80 123 8
80 136 3
80 137 7
80 142 7
80 153 3
80 161 5
80 174 8
80 181 2
80 194 2
80 213 5
80 243 3
80 251 10
80 284 1
80 290 8
81 98 4
81 102 6
81 125 2
81 131 3
81 140 6
81 145 4
81 165 9
81 169 4
81 171 10
81 175 3
81 179 7
81 187 7
81 246 7
81 260 5
81 277 1
81 280 8
81 283 7
81 287 8
81 289 3
81 298 10
82 93 8
82 100 4
82 102 7
82 106 6
82 126 1
82 149 2
82 178 7
82 181 3
82 196 3
82 200 7
82 205 9
82 236 10
82 242 6
82 249 1
82 261 2
82 264 7
82 278 7
83 84 2
83 93 10
83 97 8
83 98 5
83 124 8
83 125 6
83 144 10
83 154 9
83 155 3
83 156 9
83 180 7
83 183 3
83 224 7
83 247 9
83 249 7
83 251 1
83 265 7
83 273 4
83 284 4
84 89 1
84 118 6
84 121 1
84 130 3
84 136 5
84 142 2
84 157 3
84 159 4
84 167 4
84 168 5
84 173 2
84 174 5
84 182 6
84 203 8
84 226 8
84 227 1
84 231 5
84 236 6
84 237 5
84 243 10
84 252 10
84 272 1
84 284 6
84 292 9
84 298 1
85 89 9
85 99 3
85 126 9
85 135 2
85 140 5
85 141 4
85 149 4
85 167 7
85 169 5
85 172 7
85 174 1
85 199 5
85 201 8
85 206 4
85 208 6
85 210 6
85 230 6
85 233 7
85 255 9
85 267 4
85 271 3
85 272 4
85 273 6
85 276 9
85 300 7
86 97 9
86 101 2
86 103 8
86 115 7
86 132 10
86 152 10
86 153 6
86 166 10
86 171 8
86 177 2
86 190 6
86 207 3
86 211 9
86 216 5
86 227 6
86 236 4
86 241 8
86 254 2
86 257 5
86 261 7
86 262 3
86 277 4
86 284 3
86 286 4
86 295 7
87 93 7
87 103 8
87 106 7
87 107 6
87 128 3
87 138 10
87 144 6
87 184 7
87 185 7
87 202 9
87 214 6
87 226 6
87 239 9
87 241 3
87 251 9
87 257 10
87 265 9
87 266 4
87 267 8
87 269 8
87 279 5
88 96 7
88 105 8
88 107 7
88 117 10
88 123 9
88 125 4
88 126 7
88 128 9
88 141 1
88 145 7
88 157 8
88 170 4
88 189 1
88 200 4
88 210 1
88 212 5
88 219 2
88 223 3
88 224 4
88 233 2
88 254 9
88 259 10
88 260 9
88 268 9
88 298 4
89 91 7
89 94 8
89 104 2
89 117 5
89 125 6
89 158 5
89 166 6
89 192 9
89 228 6
89 271 5
89 280 4
89 295 2
90 105 10
90 107 5
90 112 9
90 119 5
90 132 5
90 135 8
90 139 5
90 142 2
90 143 7
90 154 4
90 160 4
90 161 8
90 167 8
90 176 5
90 179 7
90 182 1
90 188 4
90 189 2
90 201 3
90 202 3
90 212 10
90 213 8
90 217 7
90 228 6
90 233 2
90 237 9
90 239 5
90 244 9
90 251 6
90 258 7
90 260 4
90 267 10
90 288 3
90 298 2
90 299 10
91 102 10
91 104 3
91 107 4
91 123 2
91 127 5
91 130 8
91 148 7
91 149 6
91 160 7
91 169 5
91 173 2
91 178 5
91 183 2
91 196 7
91 218 1
91 223 6
91 226 8
91 233 6
91 243 3
91 253 8
91 262 8
91 271 10
91 274 7
91 283 5
91 294 3
92 95 4
92 108 1
92 109 6
92 123 6
92 143 9
92 149 9
92 150 10
92 155 2
92 159 9
92 173 9
92 177 7
92 179 6
92 180 3
92 184 8
92 207 2
92 231 8
92 232 8
92 239 1
92 256 9
92 257 4
92 274 4
92 276 2
93 103 8
93 109 10
93 114 2
93 132 7
93 137 2
93 141 6
93 143 4
93 156 4
93 164 6
93 166 4
93 171 9
93 177 10
93 208 3
93 219 2
93 240 10
93 257 1
93 273 4
93 295 10
93 299 7
94 104 5
94 109 7
94 112 7
94 143 7
94 164 1
94 170 4
94 193 2
94 194 2
94 219 4
94 220 7
94 227 5
94 239 7
94 243 1
94 249 5
94 259 7
94 265 10
94 291 1
94 292 5
94 297 2
95 134 6
95 158 4
95 166 9
95 187 7
95 235 3
95 248 9
95 249 8
95 258 8
95 266 1
95 268 5
95 269 1
95 286 5
95 288 2
95 294 5
96 98 7
96 104 8
96 109 10
96 130 7
96 133 6
96 141 10
96 142 2
96 149 5
96 168 1
96 175 2
96 193 8
96 199 5
96 215 4
96 224 6
96 231 9
96 234 7
96 236 10
96 254 9
96 264 10
96 271 5
96 276 3
96 288 3
96 300 10
97 100 6
97 107 9
97 114 5
97 119 7
97 122 2
97 140 1
97 150 9
97 187 9
97 202 9
97 206 5
97 213 4
97 219 10
97 242 2
97 243 8
97 250 7
97 276 9
97 284 1
97 287 6
97 288 3
97 293 9
97 297 4
98 99 5
98 101 1
98 119 4
98 126 2
98 147 6
98 149 10
98 151 3
98 153 8
98 158 2
98 172 8
98 187 7
98 188 10
98 235 10
98 247 1
98 269 1
98 279 9
98 296 9
98 298 1
99 123 6
99 125 5
99 132 10
99 133 3
99 146 2
99 154 1
99 165 4
99 175 6
99 177 3
99 178 2
99 181 1
99 185 10
99 188 8
99 191 5
99 199 4
99 207 8
99 210 9
99 215 7
99 227 4
99 235 2
99 238 4
99 245 8
99 247 3
99 249 1
99 257 6
99 272 3
99 278 10
99 294 10
100 103 7
100 109 5
100 134 4
100 144 10
100 170 4
100 173 2
100 191 3
100 193 10
100 195 1
100 197 5
100 199 2
100 213 4
100 220 1
100 221 8
100 248 9
100 273 1
100 283 4
100 285 10
100 287 2
100 288 6
100 289 5
100 300 6
101 104 7
101 110 1
101 115 1
101 123 7
101 124 4
101 144 8
101 153 6
101 160 3
101 175 4
101 176 3
101 177 2
101 185 10
101 187 9
101 204 1
101 220 10
101 222 2
101 227 1
101 233 5
101 254 9
101 256 1
101 280 4
102 104 2
102 106 4
102 108 5
102 109 6
102 111 5
102 112 4
102 124 3
102 140 6
102 147 4
102 182 1
102 190 4
102 198 8
102 203 10
102 206 8
102 219 3
102 228 4
102 229 5
102 246 3
102 252 2
102 262 8
102 289 4
102 292 10
103 104 8
103 166 3
103 175 3
103 181 10
103 191 4
103 192 7
103 193 7
103 202 5
103 208 1
103 213 2
103 219 2
103 220 9
103 231 4
103 233 3
103 234 3
103 235 2
103 239 3
103 246 8
103 253 5
103 267 3
103 276 9
104 119 5
104 123 2
104 131 9
104 132 3
104 138 5
104 146 5
104 153 9
104 165 5
104 169 5
104 171 9
104 186 4
104 188 9
104 190 6
104 192 7
104 211 8
104 229 2
104 233 8
104 257 8
104 261 9
104 272 2
104 275 4
104 281 9
104 286 5
105 107 6
105 109 3
105 114 1
105 122 8
105 137 9
105 170 2
105 179 9
105 187 8
105 190 4
105 198 5
105 207 4
105 208 6
105 209 2
105 232 4
105 239 2
105 276 4
106 108 1
106 127 10
106 149 1
106 150 1
106 171 3
106 177 5
106 207 2
106 215 10
106 223 8
106 230 10
106 248 8
106 258 8
106 260 5
106 271 5
106 276 3
106 279 5
106 298 10
107 125 6
107 126 1
107 135 10
107 147 8
107 152 2
107 157 9
107 161 8
107 162 7
107 167 1
107 169 5
107 182 3
107 192 5
107 198 2
107 205 4
107 207 6
107 219 4
107 224 4
107 229 1
107 231 1
107 233 5
107 235 4
107 254 2
107 256 6
107 258 1
107 261 10
107 272 7
107 283 3
107 291 2
107 298 4
108 122 3
108 123 3
108 137 3
108 139 6
108 148 1
108 154 5
108 166 7
108 183 9
108 192 10
108 195 7
108 199 7
108 201 10
108 210 7
108 225 10
108 237 10
108 243 10
108 244 8
108 247 4
108 271 3
108 272 4
108 273 1
108 280 2
108 282 6
108 283 1
108 289 6
108 300 10
109 112 3
109 124 5
109 128 7
109 147 7
109 157 6
109 170 9
109 190 2
109 192 9
109 211 6
109 222 6
109 236 7
109 248 3
109 250 10
109 252 5
109 253 8
109 284 7
109 288 10
109 292 6
109 295 2
109 297 8
110 111 4
110 112 1
110 113 1
110 121 1
110 130 5
110 136 10
110 158 10
110 161 10
110 176 10
110 179 9
110 186 6
110 196 1
110 208 1
110 215 9
110 235 9
110 238 3
110 246 8
110 258 8
110 261 8
110 266 2
110 276 9
110 280 7
110 282 5
111 117 6
111 119 6
111 130 7
111 131 9
111 155 5
111 169 5
111 178 7
111 186 5
111 187 1
111 203 6
111 219 6
111 223 1
111 240 6
111 243 9
111 244 1
111 248 8
111 260 2
111 280 6
111 285 2
111 298 3
112 121 5
112 124 7
112 132 6
112 143 3
112 149 2
112 162 1
112 168 5
112 173 9
112 174 1
112 188 9
112 192 3
112 209 8
112 211 6
112 215 6
112 219 4
112 222 9
112 228 6
112 229 7
112 247 4
112 286 4
112 287 5
112 296 8
113 119 3
113 120 8
113 125 4
113 130 6
113 131 5
113 133 7
113 162 4
113 170 1
113 177 2
113 179 7
113 183 7
113 187 1
113 218 4
113 224 3
113 226 8
113 236 5
113 240 10
113 256 4
113 266 10
113 270 6
113 271 1
113 276 1
113 277 10
113 279 8
113 280 6
113 281 6
113 288 8
113 289 10
113 290 4
113 291 7
113 295 5
114 124 7
114 172 2
114 174 9
114 180 10
114 209 8
114 232 7
114 250 1
114 251 2
114 265 8
114 267 10
115 122 7
115 124 9
115 133 5
115 135 3
115 137 10
115 149 6
115 151 3
115 153 4
115 159 8
115 177 4
115 179 8
115 192 6
115 211 6
115 241 1
115 247 9
115 262 1
115 268 10
115 272 6
115 294 8
116 142 8
116 143 9
116 153 10
116 167 4
116 173 2
116 189 8
116 196 3
116 229 5
116 234 5
116 236 8
116 274 4
116 283 3
116 284 4
116 294 6
116 295 8
117 124 7
117 132 4
117 138 4
117 149 10
117 157 9
117 159 6
117 177 7
117 184 3
117 194 7
117 205 8
117 207 8
117 226 6
117 228 2
117 230 8
117 233 9
117 235 8
117 240 8
117 241 4
117 258 2
117 285 1
117 286 10
118 126 10
118 137 3
118 143 10
118 153 2
118 159 9
118 208 4
118 218 9
118 219 7
118 225 8
118 226 10
118 232 4
118 235 9
118 241 3
118 244 10
118 250 9
118 253 1
118 259 7
118 264 2
118 266 10
118 269 10
118 270 2
118 275 6
118 281 7
118 286 5
118 296 6
118 299 4
119 121 8
119 122 8
119 124 2
119 131 6
119 135 6
119 142 1
119 144 1
119 154 1
119 163 1
119 175 8
119 181 9
119 196 10
119 224 5
119 232 7
119 235 5
119 238 3
119 246 5
119 266 3
119 270 1
119 272 4
119 290 3
119 298 5
120 125 8
120 130 5
120 139 3
120 146 9
120 151 4
120 153 5
120 164 9
120 174 3
120 205 7
120 214 7
120 225 8
120 234 8
120 243 10
120 249 7
120 268 4
121 135 2
121 136 7
121 167 7
121 169 3
121 178 5
121 184 2
121 195 4
121 224 10
121 238 10
121 239 3
121 240 3
121 251 7
121 257 1
121 258 2
121 260 3
121 295 2
121 297 4
122 125 2
122 126 7
122 127 10
122 129 9
122 167 4
122 168 10
122 173 10
122 178 5
122 179 3
122 180 10
122 214 3
122 235 4
122 240 5
122 248 1
122 254 2
122 272 2
122 275 1
122 296 8
123 126 3
123 130 9
123 131 10
123 147 1
123 173 8
123 174 5
123 177 3
123 181 9
123 182 5
123 187 7
123 191 9
123 204 9
123 213 10
123 226 4
123 231 1
123 248 4
123 251 8
123 296 7
123 300 8
124 140 5
124 146 2
124 154 10
124 158 7
124 165 2
124 172 7
124 191 7
124 199 5
124 238 5
124 246 3
124 287 8
124 288 2
125 132 2
125 142 5
125 153 4
125 166 7
125 170 4
125 172 10
125 175 9
125 181 7
125 183 3
125 187 3
125 209 4
125 211 4
125 219 4
125 244 8
125 249 10
125 278 7
125 279 4
125 280 7
125 284 5
125 296 2
126 151 4
126 178 7
126 189 1
126 197 8
126 204 8
126 212 3
126 227 4
126 258 10
126 263 8
126 264 5
126 269 9
126 288 1
127 147 8
127 162 5
127 163 8
127 170 4
127 179 4
127 189 9
127 191 1
127 199 9
127 207 5
127 215 5
127 216 2
127 234 6
127 235 7
127 237 3
127 241 1
127 243 5
127 266 5
127 277 4
127 279 4
127 281 4
127 283 10
127 287 3
128 148 7
128 153 8
128 157 7
128 158 9
128 162 4
128 193 7
128 213 1
128 217 4
128 234 7
128 260 7
128 275 7
128 287 6
128 288 9
128 291 1
129 132 4
129 142 9
129 147 7
129 153 6
129 157 2
129 158 3
129 159 8
129 161 4
129 163 9
129 169 4
129 170 3
129 173 6
129 179 3
129 182 4
129 185 1
129 200 4
129 202 5
129 245 3
129 273 6
130 146 6
130 156 10
130 157 7
130 160 4
130 162 5
130 163 2
130 167 5
130 211 3
130 216 7
130 224 10
130 232 4
130 262 4
130 268 5
130 269 6
130 286 3
130 293 4
130 295 6
130 298 10
131 146 1
131 149 6
131 153 6
131 204 8
131 207 9
131 212 1
131 217 2
131 219 1
131 224 1
131 226 8
131 229 6
131 236 10
131 239 2
131 242 3
131 250 10
131 251 9
131 285 3
131 293 7
132 134 10
132 142 5
132 152 2
132 167 8
132 168 2
132 172 1
132 182 6
132 198 4
132 200 2
132 214 4
132 223 8
132 233 10
132 235 10
132 242 7
132 259 5
132 263 4
132 276 5
133 135 1
133 142 8
133 143 2
133 155 6
133 161 9
133 170 7
133 174 5
133 181 5
133 186 5
133 191 8
133 197 8
133 200 10
133 210 2
133 220 10
133 227 4
133 235 3
133 239 10
133 241 9
133 250 9
133 251 4
133 253 7
133 281 3
133 283 1
133 296 2
134 141 5
134 154 3
134 171 5
134 174 9
134 189 7
134 201 7
134 202 8
134 206 10
134 208 3
134 245 10
134 252 4
134 259 8
134 264 1
134 277 7
134 280 1
134 288 9
134 290 2
135 142 2
135 154 10
135 165 2
135 181 5
135 185 1
135 191 2
135 192 9
135 202 8
135 215 1
135 227 7
135 230 10
135 232 8
135 252 1
135 263 2
135 266 9
135 287 5
135 295 1
135 297 2
135 298 5
136 143 5
136 144 8
136 147 10
136 171 7
136 177 1
136 184 2
136 185 4
136 186 2
136 194 9
136 196 10
136 204 1
136 206 10
136 218 8
136 233 8
136 236 1
136 238 5
136 239 7
136 245 4
136 255 7
136 266 9
136 271 2
136 273 10
136 288 6
136 294 2
136 298 1
137 152 10
137 154 5
137 156 10
137 157 7
137 180 7
137 186 3
137 199 9
137 202 4
137 213 6
137 214 8
137 225 6
137 245 3
137 275 1
137 276 5
137 290 6
137 293 3
137 294 9
137 299 5
138 142 1
138 144 4
138 148 3
138 150 4
138 163 4
138 190 2
138 203 8
138 204 3
138 205 3
138 232 6
138 240 7
138 246 5
138 274 5
139 141 4
139 146 3
139 150 1
139 158 6
139 166 2
139 177 9
139 193 2
139 197 8
139 200 9
139 210 3
139 211 9
139 217 8
139 246 5
139 247 4
139 285 5
139 288 5
139 293 9
140 155 7
140 173 6
140 181 5
140 187 10
140 188 5
140 196 5
140 211 4
140 213 1
140 228 4
140 230 6
140 262 7
140 283 7
141 147 10
141 152 5
141 169 3
141 171 6
141 177 10
141 178 3
141 181 3
141 205 2
141 237 8
141 242 10
141 244 2
141 246 2
141 285 5
141 290 3
141 291 9
141 296 3
141 297 3
142 168 4
142 179 2
142 180 3
142 209 4
142 211 7
142 253 4
142 255 7
142 259 6
142 262 8
142 273 4
142 274 7
142 280 4
142 294 9
142 296 10
142 298 1
143 146 9
143 171 9
143 187 8
143 193 9
143 199 4
143 207 1
143 211 5
143 212 10
143 215 1
143 217 8
143 220 4
143 227 6
143 228 3
143 235 7
143 237 4
143 260 4
143 263 6
143 274 6
143 276 9
143 293 9
144 149 8
144 163 1
144 166 10
144 167 5
144 169 8
144 170 9
144 177 3
144 181 9
144 191 7
144 211 4
144 215 6
144 224 1
144 233 6
144 250 8
144 254 10
144 275 10
144 283 6
144 291 9
144 295 7
145 155 3
145 161 3
145 205 3
145 209 9
145 211 3
145 221 1
145 234 9
145 241 3
145 246 7
145 262 9
145 263 7
145 269 10
145 270 10
145 271 5
145 272 5
145 283 6
145 296 6
146 152 10
146 154 6
146 156 8
146 161 3
146 164 6
146 165 1
146 171 2
146 176 9
146 185 8
146 186 10
146 194 10
146 196 6
146 224 1
146 225 7
146 226 6
146 245 6
146 260 7
146 263 9
146 272 3
146 278 5
146 279 9
147 161 8
147 170 3
147 180 5
147 188 1
147 194 6
147 195 9
147 202 10
147 203 1
147 204 8
147 246 3
147 248 5
147 256 9
147 265 10
147 275 6
147 278 7
147 288 6
147 295 2
147 299 6
148 153 2
148 157 7
148 163 2
148 178 5
148 184 2
148 186 6
148 193 8
148 207 7
148 210 2
148 211 4
148 216 10
148 217 4
148 220 2
148 231 9
148 232 9
148 241 9
148 265 4
148 270 8
148 282 8
148 285 8
148 300 10
149 160 4
149 171 5
149 185 2
149 230 5
149 257 5
149 262 9
149 264 6
149 274 10
149 277 5
149 279 8
150 152 3
150 165 1
150 166 9
150 176 1
150 177 5
150 183 2
150 187 7
150 194 3
150 210 7
150 211 8
150 222 3
150 235 9
150 236 8
150 240 4
150 247 6
150 248 9
150 253 4
150 278 8
150 297 4
151 164 8
151 168 3
151 176 8
151 178 1
151 181 8
151 198 3
151 212 6
151 217 6
151 218 10
151 227 10
151 236 7
151 250 2
151 252 2
151 261 8
151 265 3
151 268 4
151 270 3
151 288 10
152 174 5
152 181 10
152 202 6
152 205 9
152 217 10
152 247 6
152 258 10
152 263 10
152 283 3
152 294 4
153 162 6
153 163 8
153 175 4
153 186 5
153 200 10
153 207 9
153 212 9
153 229 8
153 236 8
153 240 2
153 241 3
153 242 4
153 249 9
153 260 6
153 288 1
153 290 5
154 188 2
154 191 3
154 211 4
154 213 2
154 221 8
154 222 7
154 241 8
154 243 1
154 253 10
154 255 5
154 263 4
154 267 6
154 270 1
154 271 6
154 283 6
154 287 2
154 294 6
155 157 8
155 179 6
155 182 7
155 195 2
155 202 3
155 204 6
155 214 3
155 219 4
155 229 4
155 231 6
155 245 4
155 259 2
155 263 10
155 264 9
155 269 5
155 270 7
155 273 8
155 275 8
155 294 4
155 298 3
156 167 4
156 176 1
156 191 10
156 206 2
156 223 1
156 227 7
156 229 5
156 233 8
156 237 8
156 264 1
156 274 2
157 159 5
157 167 8
157 196 8
157 213 9
157 231 5
157 238 10
157 239 2
157 256 6
157 295 3
158 178 3
158 196 3
158 202 4
158 204 5
158 207 1
158 224 5
158 233 5
158 246 2
158 260 3
158 289 1
158 293 4
158 296 5
158 299 1
159 165 2
159 169 7
159 179 7
159 202 7
159 205 4
159 214 4
159 215 8
159 223 7
159 227 10
159 228 9
159 242 10
159 269 6
159 272 5
159 277 1
159 278 9
159 290 9
159 291 5
159 292 6
159 293 8
160 164 9
160 185 7
160 188 9
160 193 8
160 194 10
160 201 5
160 213 3
160 218 7
160 220 8
160 221 1
160 243 8
160 248 3
160 251 9
160 254 6
160 256 1
160 265 7
160 273 9
160 279 7
161 172 5
161 174 4
161 175 10
161 176 6
161 181 8
161 196 1
161 211 7
161 212 6
161 236 7
161 249 8
161 250 10
161 268 1
161 280 5
161 299 3
162 168 6
162 182 1
162 185 4
162 189 10
162 191 9
162 208 5
162 222 7
162 243 10
162 250 10
162 262 8
162 266 6
162 272 4
162 296 5
162 299 7
163 172 4
163 173 4
163 181 8
163 185 4
163 194 2
163 200 2
163 204 5
163 229 9
163 237 2
163 238 1
163 277 4
163 285 7
163 286 10
163 290 4
163 299 8
164 176 3
164 198 5
164 200 5
164 202 2
164 206 8
164 214 8
164 224 7
164 260 7
164 262 6
164 266 4
164 271 8
164 275 2
164 279 8
165 185 7
165 189 7
165 207 4
165 208 9
165 210 1
165 234 3
165 245 3
165 254 3
165 260 3
165 272 6
165 282 8
165 300 7
166 172 8
166 176 7
166 197 8
166 200 4
166 218 2
166 228 5
166 232 5
166 234 2
166 236 6
166 246 8
166 257 1
166 260 1
166 262 3
166 264 7
166 271 3
166 276 3
166 284 5
166 290 7
166 292 4
167 177 5
167 181 10
167 183 1
167 190 7
167 197 7
167 203 3
167 216 2
167 227 10
167 237 4
167 263 7
167 274 5
167 281 6
167 284 9
167 293 2
168 170 3
168 179 3
168 184 3
168 185 2
168 188 7
168 190 3
168 193 10
168 199 7
168 205 5
168 220 10
168 221 6
168 222 10
168 236 10
168 237 6
168 247 5
168 286 5
168 291 2
169 170 5
169 176 1
169 179 9
169 194 1
169 252 4
169 261 5
169 266 3
169 275 10
169 292 8
170 178 6
170 214 7
170 223 10
170 234 9
170 253 10
170 254 3
170 256 6
170 270 1
170 281 9
170 282 10
170 290 2
170 296 3
170 297 5
171 175 5
171 183 10
171 195 1
171 202 8
171 208 8
171 209 2
171 227 8
171 239 4
171 249 5
171 254 7
171 258 4
171 261 10
171 268 9
171 273 1
171 298 1
172 183 7
172 193 2
172 198 7
172 206 1
172 212 9
172 226 5
172 228 3
172 282 5
172 294 8
173 236 8
173 260 3
173 277 7
174 176 2
174 198 7
174 210 2
174 212 1
174 224 6
174 225 10
174 226 3
174 228 2
174 265 9
174 266 1
174 283 2
174 290 8
175 178 5
175 187 6
175 188 4
175 200 7
175 203 2
175 210 10
175 221 8
175 225 3
175 232 8
175 233 9
175 253 6
175 257 7
175 286 5
175 297 9
176 204 10
176 211 4
176 217 5
176 220 6
176 227 7
176 236 1
176 240 1
176 247 8
176 249 10
176 252 9
176 260 2
176 266 6
176 277 8
177 184 2
177 201 8
177 210 7
177 221 6
177 223 6
177 225 2
177 245 6
177 260 10
177 263 7
177 264 4
177 267 2
177 271 3
177 274 10
177 280 9
177 284 4
178 183 8
178 184 2
178 217 4
178 218 9
178 220 8
178 231 10
178 234 7
178 240 4
178 271 9
178 282 9
178 286 9
178 297 5
179 180 4
179 193 2
179 199 7
179 202 6
179 214 5
179 250 4
179 255 8
179 273 2
179 300 10
180 189 2
180 197 7
180 201 7
180 221 2
180 258 10
180 261 1
180 269 6
180 270 4
180 277 5
180 299 4
181 182 3
181 187 8
181 188 5
181 204 1
181 216 10
181 222 5
181 244 5
181 246 4
181 255 6
181 263 5
181 287 10
181 290 9
182 185 10
182 193 10
182 206 2
182 219 3
182 239 6
182 245 3
182 254 4
182 266 7
182 268 4
182 279 5
182 284 5
182 287 7
182 296 8
182 299 9
183 186 2
183 215 2
183 227 8
183 244 6
183 259 3
183 264 2
183 268 10
183 280 9
183 287 7
183 297 8
184 188 7
184 192 7
184 230 8
184 231 2
184 233 1
184 250 9
184 256 4
184 273 4
184 276 8
184 280 8
185 189 4
185 193 3
185 198 6
185 199 1
185 214 3
185 224 5
185 244 1
185 253 7
186 194 5
186 196 6
186 197 2
186 222 5
186 230 1
186 241 4
186 259 7
186 263 4
186 268 6
186 269 8
186 276 6
186 277 3
187 196 4
187 216 2
187 225 4
187 226 2
187 235 6
187 243 8
187 245 4
187 250 3
187 270 3
187 275 9
187 277 6
188 189 1
188 209 7
188 211 7
188 212 8
188 213 10
188 221 5
188 227 5
188 234 6
188 253 1
188 255 6
188 256 6
188 259 6
188 264 1
188 284 8
189 216 2
189 224 5
189 230 1
189 247 8
189 265 9
189 273 2
189 277 1
189 283 2
190 197 10
190 211 4
190 218 3
190 222 1
190 235 10
190 242 6
190 250 2
190 260 2
190 272 5
190 273 8
190 274 8
190 278 2
190 290 4
191 202 9
191 207 9
191 209 6
191 211 10
191 220 1
191 233 2
191 247 3
191 256 8
191 259 8
191 273 10
191 292 8
192 206 6
192 217 1
192 249 9
192 275 10
192 276 6
192 282 2
192 283 4
192 300 5
193 221 4
193 229 8
193 247 10
193 260 7
193 276 8
193 281 4
193 284 9
193 295 2
194 198 4
194 240 9
194 248 1
194 250 8
194 253 6
194 257 7
194 284 10
194 289 6
195 205 9
195 207 8
195 209 8
195 225 6
195 253 6
195 267 5
195 274 1
195 277 10
195 290 2
195 293 10
195 300 4
196 206 2
196 214 8
196 215 4
196 229 6
196 230 1
196 234 7
196 240 3
196 257 3
196 270 7
196 272 2
196 278 9
196 287 1
196 290 2
196 297 2
197 210 3
197 226 1
197 232 6
197 249 9
197 274 6
197 279 3
197 286 3
198 201 1
198 203 4
198 204 7
198 222 3
198 223 5
198 248 2
198 263 1
198 267 9
198 272 1
198 277 1
198 285 2
198 300 6
199 217 10
199 221 6
199 222 4
199 247 3
199 261 1
199 278 4
199 282 9
199 297 2
200 203 5
200 204 6
200 214 8
200 237 3
200 239 7
200 244 1
200 248 4
200 252 1
200 266 2
200 296 10
201 218 2
201 221 3
201 228 3
201 265 9
201 268 3
201 275 5
201 278 5
201 289 8
202 207 3
202 211 1
202 223 9
202 238 5
202 250 10
202 253 8
202 273 10
202 276 2
202 287 9
202 300 2
203 216 10
203 228 2
203 232 8
203 234 10
203 239 5
203 240 9
203 251 10
203 269 10
203 272 4
203 278 9
203 279 8
203 295 5
204 217 7
204 221 6
204 236 6
204 238 1
204 247 9
204 248 3
204 286 2
204 288 7
204 294 3
205 210 9
205 218 9
205 228 8
205 241 1
205 253 8
205 257 10
205 259 2
205 260 6
205 263 1
205 266 9
205 272 8
205 293 5
206 223 6
206 226 6
206 232 2
206 233 2
206 248 7
206 260 6
206 262 8
206 264 7
206 271 6
206 275 8
206 279 6
206 292 2
207 210 4
207 215 9
207 217 3
207 220 1
207 223 1
207 225 2
207 232 3
207 234 5
207 238 7
207 245 1
207 249 3
207 259 2
207 262 5
207 269 2
207 275 9
207 278 5
207 287 2
207 293 10
208 214 10
208 219 9
208 231 3
208 239 10
208 242 4
208 251 5
208 279 5
208 283 6
208 285 6
208 290 2
208 293 10
208 298 7
209 221 6
209 229 7
209 233 9
209 271 5
209 276 9
209 286 10
210 247 4
210 250 4
211 233 1
211 237 7
211 242 4
211 248 8
211 250 7
211 253 2
211 255 10
211 262 2
211 270 6
211 274 8
211 276 6
211 286 9
211 291 8
211 293 2
212 216 5
212 217 3
212 219 6
212 234 1
212 239 3
212 267 7
212 275 6
212 276 1
212 283 9
212 293 8
212 297 4
213 214 5
213 218 3
213 252 10
213 253 10
213 256 8
213 266 1
213 272 1
213 274 10
213 291 2
213 300 1
214 219 1
214 223 8
214 235 6
214 251 5
214 254 9
214 263 1
214 268 4
214 286 3
215 221 6
215 225 4
215 239 4
215 247 6
215 273 3
215 286 10
215 292 8
215 297 10
215 298 3
216 217 3
216 238 6
216 255 4
216 259 3
216 262 3
216 276 2
217 224 9
217 232 3
217 236 1
217 240 7
217 252 10
217 256 9
217 259 6
217 273 1
217 279 9
217 281 1
217 283 5
217 288 8
218 220 6
218 229 3
218 237 3
218 241 10
218 242 6
218 245 9
218 256 2
218 258 3
218 277 7
218 278 5
218 296 1
218 299 10
219 220 1
219 249 6
219 261 5
219 262 2
219 263 9
219 280 8
220 222 4
220 227 3
220 251 2
220 261 6
220 267 4
220 268 1
220 273 8
220 276 7
220 281 9
221 224 5
221 229 2
221 238 6
221 243 8
221 276 10
221 288 2
221 296 8
221 297 2
222 223 3
222 226 6
222 235 10
222 236 10
222 244 1
222 251 6
222 253 2
222 260 4
222 265 4
222 279 6
222 285 10
222 290 5
222 298 4
223 228 6
223 235 5
223 244 3
223 254 9
223 259 4
223 264 3
223 271 2
223 272 1
223 295 9
223 297 10
224 234 5
224 250 7
224 255 8
225 237 3
225 238 8
225 259 1
225 268 10
225 273 1
225 279 4
225 280 2
225 283 9
225 294 3
225 296 4
225 299 1
225 300 3
226 238 8
226 251 8
226 256 2
226 270 2
226 278 2
226 282 5
226 286 3
226 288 3
227 228 2
227 230 5
227 234 1
227 246 2
227 258 10
227 268 5
227 269 10
228 236 8
228 246 10
228 263 10
228 271 5
228 278 8
228 292 3
228 294 5
228 299 7
229 231 3
229 245 5
229 258 2
229 265 2
229 272 4
229 276 7
229 298 3
230 244 10
230 260 2
230 275 10
230 289 4
230 291 8
230 299 9
230 300 6
231 232 3
231 244 4
231 246 9
231 253 3
231 266 10
231 272 9
231 280 2
231 285 6
231 293 7
232 236 3
232 245 1
232 255 9
232 289 10
233 238 8
233 242 10
233 248 10
233 249 3
233 265 8
233 276 3
234 250 10
234 263 8
234 281 2
234 283 10
234 286 3
234 300 1
235 238 2
235 275 9
235 280 9
235 282 4
235 294 9
235 300 8
236 240 4
236 253 9
236 272 1
236 281 3
236 284 8
236 286 3
236 289 7
236 296 9
236 298 9
237 252 5
237 257 2
237 285 8
237 297 3
239 251 10
239 256 10
239 267 2
239 279 2
239 297 2
239 300 3
240 246 5
240 259 5
240 282 7
241 247 6
241 295 2
241 297 10
241 300 1
242 247 7
242 257 5
242 293 10
243 248 9
243 254 3
243 260 1
243 262 5
243 266 6
243 296 7
244 264 7
244 277 4
244 281 1
244 293 5
245 257 5
245 281 5
245 292 8
246 254 9
246 259 9
246 287 6
246 291 7
246 299 6
247 251 4
247 256 7
247 267 4
247 269 8
247 276 1
247 286 1
247 289 5
247 290 9
247 298 5
248 249 1
248 250 4
248 287 6
248 289 2
248 294 4
248 297 4
250 261 6
250 281 10
251 256 3
251 260 2
251 281 1
252 267 9
252 273 2
252 276 2
252 289 2
253 277 7
253 284 7
254 256 1
254 263 8
254 280 9
254 293 9
254 299 5
255 268 2
255 277 7
256 266 3
256 271 10
256 275 5
257 266 5
257 278 3
257 287 6
257 288 3
257 298 6
258 272 2
258 273 9
258 275 6
258 285 5
258 288 4
258 293 2
258 298 4
259 283 1
259 296 7
260 262 1
260 272 10
260 278 10
260 285 1
260 295 6
261 266 9
261 296 8
262 267 3
262 278 1
262 288 2
263 264 7
263 268 2
263 269 3
263 274 2
263 296 1
264 265 1
264 267 6
264 272 8
264 290 9
265 274 3
265 277 10
266 284 3
266 291 9
266 299 7
267 276 5
267 279 2
267 284 5
267 289 1
267 295 10
268 275 5
268 276 10
269 275 10
269 281 5
269 286 4
269 297 1
270 275 4
270 288 9
270 296 6
271 278 3
271 291 5
271 295 10
271 296 10
271 298 4
272 273 4
272 280 1
272 286 3
272 295 9
272 296 3
273 274 4
273 275 10
273 288 10
273 292 1
273 294 8
273 298 1
273 299 5
274 282 2
274 284 1
274 288 5
275 280 6
276 282 8
276 288 4
276 297 10
277 279 2
277 288 3
277 291 8
278 282 1
278 289 1
279 284 5
279 300 2
280 289 4
280 296 4
280 300 1
283 286 4
283 292 2
284 294 3
286 288 9
286 296 10
287 290 2
288 291 4
288 293 1
290 292 2
291 295 7
292 300 5
293 297 9
295 298 4
296 299 6
296 300 2
