300 8970 825
3
7
6
5
8
8
8
3
3
9
2
9
6
2
1
2
2
10
9
6
6
4
5
9
1
9
5
9
7
1
5
5
1
10
8
9
3
6
6
8
8
7
7
8
6
10
8
4
10
3
5
5
2
2
9
2
9
2
10
7
5
10
2
6
4
4
3
6
9
7
10
5
5
6
1
6
2
9
4
2
10
7
1
2
6
6
5
5
10
9
8
5
9
8
2
6
8
6
9
9
3
4
2
2
5
9
6
5
1
6
4
7
5
4
4
6
4
3
10
2
8
4
8
4
10
2
5
10
9
10
9
4
4
2
4
6
8
1
9
10
5
10
3
2
7
10
9
2
10
9
9
8
4
6
3
8
7
8
4
2
4
9
9
8
7
9
5
2
2
4
6
7
2
8
2
5
10
10
1
9
9
8
4
2
4
1
8
4
2
5
2
3
7
4
10
2
5
2
7
7
1
6
9
6
5
10
3
4
3
6
8
8
7
10
1
8
6
8
4
3
5
9
9
1
7
5
2
6
4
2
9
9
8
6
1
8
8
2
2
8
2
4
10
8
9
3
4
2
6
9
5
7
2
3
10
10
4
3
9
6
10
5
4
4
2
9
2
8
3
1
4
6
8
9
9
8
10
5
9
4
1
5
6
10
1
1
5
5
10
4
8
8
5
8
8
7
8
9
8
4
1 5 8
1 15 10
1 19 4
1 24 5
1 26 1
1 36 3
1 37 9
1 43 1
1 44 7
1 45 4
1 46 1
1 68 9
1 70 7
1 72 2
1 76 1
1 77 9
1 79 2
1 86 7
1 89 1
1 92 10
1 93 9
1 97 3
1 98 3
1 99 4
1 100 5
1 101 3
1 107 3
1 116 6
1 118 2
1 158 7
1 165 2
1 168 6
1 171 8
1 172 3
1 176 1
1 178 2
1 185 1
1 190 6
1 212 8
1 217 8
1 222 2
1 224 10
1 228 5
1 231 1
1 233 9
1 256 9
1 260 8
1 262 1
1 263 7
1 268 2
1 270 2
1 271 8
1 273 9
1 275 2
1 285 10
1 289 3
1 294 1
2 6 1
2 9 6
2 11 10
2 20 4
2 25 8
2 28 9
2 30 4
2 35 1
2 41 7
2 51 4
2 65 6
2 69 9
2 70 8
2 72 3
2 100 1
2 102 5
2 109 1
2 111 10
2 117 7
2 120 7
2 121 3
2 128 6
2 129 8
2 143 2
2 151 4
2 156 3
2 166 4
2 168 6
2 169 2
2 179 8
2 181 2
2 190 9
2 191 3
2 199 9
2 214 5
2 220 3
2 222 1
2 227 8
2 234 1
2 235 9
2 250 5
2 260 1
2 261 6
2 263 2
2 272 8
2 280 5
2 287 8
2 290 5
2 294 1
3 5 3
3 20 8
3 24 3
3 37 8
3 40 3
3 45 1
3 52 9
3 57 7
3 59 2
3 64 9
3 66 3
3 73 6
3 84 9
3 91 8
3 94 4
3 106 8
3 109 2
3 110 1
3 112 3
3 129 1
3 130 3
3 132 4
3 133 6
3 134 3
3 135 5
3 141 5
3 151 8
3 154 5
3 156 8
3 159 6
3 182 8
3 186 8
3 190 2
3 192 10
3 196 9
3 201 6
3 204 10
3 206 7
3 207 2
3 209 4
3 214 6
3 217 9
3 225 6
3 226 5
3 228 8
3 230 2
3 232 3
3 240 10
3 256 8
3 263 2
3 265 6
3 269 7
3 272 10
3 282 5
3 290 4
4 15 2
4 17 2
4 19 3
4 35 4
4 36 2
4 38 1
4 40 6
4 42 7
4 48 9
4 59 7
4 63 7
4 64 9
4 71 7
4 75 10
4 80 10
4 82 3
4 86 3
4 87 5
4 90 3
4 92 2
4 102 7
4 110 1
4 114 3
4 115 6
4 127 9
4 131 7
4 143 9
4 152 10
4 160 8
4 161 10
4 167 10
4 179 7
4 183 8
4 187 9
4 192 7
4 197 8
4 203 8
4 207 7
4 211 9
4 225 9
4 226 1
4 227 9
4 229 9
4 240 2
4 254 6
4 258 9
4 265 1
4 268 6
5 7 4
5 8 7
5 9 5
5 10 8
5 14 8
5 16 6
5 21 6
5 23 5
5 27 10
5 30 7
5 31 3
5 32 3
5 43 7
5 55 7
5 59 10
5 63 3
5 68 3
5 71 7
5 74 5
5 90 2
5 91 4
5 94 4
5 100 9
5 103 4
5 106 3
5 107 4
5 115 8
5 126 6
5 128 2
5 130 8
5 141 7
5 145 1
5 148 9
5 155 10
5 162 6
5 170 9
5 174 5
5 176 9
5 179 9
5 180 9
5 182 2
5 183 3
5 184 8
5 193 6
5 195 1
5 197 9
5 205 3
5 208 4
5 228 2
5 229 2
5 240 9
5 250 4
5 253 10
5 257 6
5 264 9
5 271 6
5 274 8
5 275 4
5 281 6
5 285 2
5 286 1
5 289 4
5 300 2
6 7 8
6 9 7
6 13 4
6 20 5
6 21 7
6 35 8
6 40 3
6 41 7
6 44 3
6 47 3
6 48 3
6 54 4
6 58 7
6 61 1
6 73 2
6 84 2
6 90 1
6 91 9
6 104 8
6 108 10
6 113 3
6 116 3
6 121 5
6 138 9
6 139 8
6 140 5
6 141 1
6 153 4
6 154 9
6 156 2
6 169 10
6 172 3
6 182 3
6 184 4
6 189 7
6 190 4
6 197 6
6 203 10
6 206 9
6 207 4
6 213 2
6 214 10
6 218 4
6 220 6
6 225 8
6 241 7
6 249 10
6 250 8
6 254 7
6 267 10
6 271 1
6 277 4
6 281 3
6 282 7
6 300 3
7 15 1
7 16 10
7 20 3
7 29 2
7 30 7
7 31 6
7 32 1
7 34 1
7 37 8
7 41 6
7 43 8
7 46 10
7 47 3
7 52 1
7 54 10
7 61 3
7 63 9
7 67 7
7 70 4
7 74 1
7 79 8
7 82 4
7 101 1
7 110 10
7 117 4
7 134 7
7 135 3
7 142 3
7 143 9
7 145 8
7 146 7
7 147 2
7 151 9
7 154 9
7 160 8
7 161 7
7 165 1
7 179 4
7 184 7
7 186 8
7 188 4
7 190 7
7 195 7
7 197 5
7 198 5
7 203 8
7 227 4
7 238 4
7 239 10
7 245 6
7 253 4
7 256 9
7 257 8
7 262 4
7 267 5
7 270 7
7 274 4
7 277 9
7 278 1
7 283 7
7 288 9
7 296 2
8 9 5
8 20 1
8 22 6
8 23 7
8 32 3
8 38 9
8 42 2
8 45 4
8 47 6
8 58 1
8 81 8
8 83 5
8 88 9
8 92 9
8 95 1
8 97 4
8 99 6
8 105 5
8 113 6
8 117 5
8 121 5
8 130 6
8 133 3
8 135 7
8 145 1
8 151 1
8 155 5
8 157 7
8 162 1
8 163 5
8 165 7
8 174 2
8 177 10
8 182 9
8 187 4
8 193 8
8 195 4
8 196 5
8 201 7
8 203 7
8 206 4
8 209 1
8 215 5
8 217 2
8 220 4
8 221 9
8 226 3
8 233 10
8 235 4
8 244 2
8 245 9
8 258 2
8 259 3
8 263 3
8 270 6
8 272 3
8 296 4
8 299 4
9 13 10
9 14 2
9 19 5
9 20 2
9 22 5
9 24 9
9 28 4
9 31 7
9 37 5
9 50 9
9 62 8
9 64 1
9 80 9
9 86 3
9 87 9
9 88 6
9 92 7
9 95 10
9 97 5
9 98 10
9 103 8
9 104 5
9 106 3
9 107 1
9 116 7
9 122 3
9 126 5
9 129 6
9 133 6
9 144 6
9 145 7
9 152 3
9 157 6
9 165 3
9 169 2
9 178 7
9 179 3
9 181 3
9 188 9
9 190 2
9 192 4
9 198 3
9 199 1
9 200 5
9 203 8
9 209 5
9 216 5
9 217 7
9 219 2
9 220 2
9 235 9
9 242 2
9 244 2
9 248 2
9 249 3
9 258 6
9 277 7
9 279 8
9 293 5
9 294 9
9 296 9
9 300 9
10 14 4
10 23 4
10 34 9
10 38 8
10 51 10
10 52 7
10 63 9
10 68 8
10 72 3
10 79 9
10 81 6
10 84 5
10 85 7
10 102 8
10 103 9
10 104 7
10 131 10
10 134 1
10 135 8
10 139 2
10 146 9
10 152 2
10 159 3
10 160 8
10 161 8
10 164 7
10 166 5
10 171 5
10 175 9
10 176 9
10 182 7
10 183 6
10 186 10
10 196 8
10 197 9
10 201 1
10 206 8
10 210 6
10 213 10
10 215 9
10 221 4
10 226 7
10 232 9
10 237 7
10 240 10
10 241 10
10 242 3
10 246 1
10 247 6
10 257 10
10 270 1
10 274 5
10 280 5
10 282 10
10 290 2
10 295 2
10 298 5
10 299 9
11 21 6
11 23 9
11 26 2
11 34 6
11 37 7
11 47 5
11 54 1
11 56 9
11 58 3
11 63 2
11 66 1
11 68 5
11 84 2
11 90 2
11 93 7
11 101 10
11 103 5
11 106 5
11 111 10
11 112 10
11 116 1
11 119 9
11 121 1
11 129 4
11 131 2
11 133 5
11 135 6
11 139 10
11 141 5
11 143 1
11 144 4
11 146 8
11 147 6
11 153 3
11 160 2
11 161 8
11 165 3
11 168 2
11 170 4
11 175 6
11 183 10
11 190 9
11 198 6
11 238 6
11 241 2
11 254 3
11 258 1
11 265 4
11 272 8
11 278 7
11 279 6
11 283 5
11 284 8
11 287 9
11 296 1
11 298 7
12 16 5
12 22 6
12 30 4
12 36 6
12 37 2
12 40 9
12 42 4
12 43 8
12 47 8
12 52 1
12 54 1
12 56 1
12 59 3
12 71 10
12 74 4
12 77 5
12 83 2
12 89 8
12 91 4
12 93 4
12 94 9
12 95 7
12 108 5
12 116 4
12 117 2
12 118 4
12 123 1
12 124 3
12 128 3
12 131 10
12 135 4
12 143 4
12 152 10
12 153 6
12 163 5
12 167 1
12 170 2
12 174 1
12 178 8
12 182 9
12 187 7
12 188 9
12 190 10
12 193 6
12 196 7
12 207 9
12 219 1
12 228 1
12 230 2
12 231 7
12 245 3
12 253 10
12 254 8
12 255 10
12 256 10
12 265 8
12 266 6
12 271 4
12 273 8
12 285 2
12 287 7
12 295 6
12 296 7
12 297 10
13 15 8
13 16 6
13 17 4
13 23 6
13 33 1
13 35 9
13 39 1
13 43 4
13 59 10
13 60 1
13 68 7
13 69 5
13 72 10
13 73 7
13 77 4
13 80 4
13 101 3
13 106 4
13 107 7
13 109 7
13 113 1
13 118 8
13 121 9
13 123 3
13 127 2
13 131 8
13 135 4
13 139 9
13 143 4
13 149 2
13 150 10
13 152 5
13 157 5
13 160 8
13 170 1
13 174 9
13 175 5
13 176 2
13 178 8
13 180 3
13 181 4
13 187 4
13 193 10
13 196 1
13 199 6
13 206 6
13 212 5
13 217 4
13 222 2
13 223 1
13 224 3
13 226 3
13 229 8
13 245 7
13 249 4
13 250 10
13 276 1
13 281 4
13 288 7
13 294 4
13 298 8
14 16 5
14 18 1
14 21 9
14 29 5
14 41 5
14 45 10
14 51 6
14 55 2
14 58 4
14 68 6
14 76 9
14 83 9
14 99 3
14 101 8
14 105 10
14 113 6
14 122 9
14 127 10
14 129 9
14 134 5
14 151 7
14 157 7
14 159 3
14 161 1
14 164 9
14 166 3
14 175 6
14 181 7
14 182 6
14 194 7
14 207 4
14 223 2
14 227 8
14 228 3
14 233 9
14 237 5
14 241 5
14 242 7
14 248 8
14 251 4
14 253 1
14 254 9
14 256 3
14 257 7
14 262 10
14 275 4
14 284 6
14 287 7
14 298 4
14 300 1
15 22 2
15 23 7
15 24 3
15 28 1
15 33 6
15 36 9
15 42 4
15 44 6
15 49 9
15 70 4
15 75 2
15 81 4
15 90 7
15 95 6
15 102 9
15 106 7
15 113 10
15 117 10
15 120 6
15 123 9
15 133 1
15 134 4
15 139 3
15 144 7
15 150 6
15 151 9
15 161 10
15 164 8
15 165 8
15 176 10
15 177 4
15 178 3
15 199 6
15 201 1
15 204 4
15 212 3
15 218 4
15 221 7
15 222 1
15 231 7
15 247 2
15 248 8
15 256 3
15 263 10
15 264 9
15 272 5
15 274 10
15 290 8
15 291 4
15 294 3
15 295 6
15 297 4
16 22 6
16 31 6
16 35 3
16 39 6
16 45 2
16 55 4
16 81 7
16 85 5
16 89 8
16 115 3
16 121 9
16 126 6
16 129 3
16 131 5
16 136 5
16 147 9
16 149 4
16 150 7
16 151 8
16 177 2
16 178 10
16 179 4
16 180 6
16 181 6
16 185 8
16 188 2
16 193 9
16 199 10
16 202 4
16 211 9
16 213 2
16 214 7
16 217 10
16 220 7
16 224 2
16 227 7
16 229 3
16 252 4
16 254 2
16 262 3
16 264 7
16 266 10
16 272 2
16 273 5
16 277 5
16 283 6
17 19 3
17 20 1
17 22 9
17 25 9
17 39 2
17 56 5
17 58 3
17 63 4
17 66 4
17 74 4
17 83 7
17 84 5
17 103 7
17 104 4
17 110 6
17 126 2
17 134 2
17 142 9
17 147 1
17 149 9
17 153 10
17 154 1
17 157 10
17 158 9
17 164 1
17 165 8
17 172 4
17 180 9
17 185 4
17 189 2
17 194 7
17 195 9
17 201 4
17 202 8
17 204 9
17 208 1
17 209 10
17 219 2
17 225 4
17 230 4
17 233 4
17 236 9
17 237 3
17 238 3
17 242 9
17 252 4
17 253 7
17 260 5
17 265 10
17 270 6
17 276 8
17 282 4
17 289 9
17 296 4
18 22 7
18 24 6
18 26 10
18 35 10
18 37 7
18 38 5
18 39 7
18 45 3
18 51 2
18 59 2
18 60 2
18 64 2
18 71 6
18 75 3
18 78 5
18 84 6
18 87 1
18 95 2
18 96 8
18 109 1
18 114 5
18 116 9
18 117 7
18 120 4
18 122 4
18 133 5
18 142 5
18 145 7
18 146 9
18 147 4
18 150 9
18 156 3
18 158 8
18 168 8
18 170 8
18 172 6
18 174 9
18 175 5
18 176 4
18 179 2
18 180 4
18 185 4
18 195 6
18 198 5
18 202 1
18 208 2
18 224 10
18 226 9
18 233 8
18 237 8
18 239 9
18 244 9
18 249 5
18 250 10
18 251 10
18 254 5
18 256 1
18 272 5
18 276 6
18 279 9
18 285 7
18 287 3
18 290 9
18 298 5
18 299 4
18 300 1
19 27 9
19 29 8
19 32 4
19 33 3
19 38 6
19 39 1
19 42 4
19 43 8
19 52 6
19 61 5
19 64 6
19 70 6
19 72 9
19 77 6
19 80 2
19 82 9
19 84 4
19 87 8
19 88 6
19 93 10
19 99 10
19 101 4
19 102 9
19 103 6
19 121 4
19 131 2
19 134 9
19 140 4
19 146 4
19 157 10
19 162 3
19 190 7
19 191 4
19 201 1
19 214 9
19 216 3
19 217 7
19 221 5
19 225 1
19 240 10
19 242 10
19 244 6
19 247 2
19 248 2
19 250 2
19 262 6
19 263 9
19 266 2
19 267 9
19 268 1
19 273 10
19 275 1
19 282 9
19 284 10
19 296 4
20 24 6
20 25 2
20 32 10
20 34 4
20 42 2
20 46 9
20 50 10
20 53 3
20 60 5
20 67 3
20 77 2
20 80 5
20 82 6
20 84 3
20 92 9
20 97 7
20 101 10
20 107 2
20 113 7
20 119 6
20 134 5
20 135 5
20 139 7
20 142 2
20 146 10
20 148 4
20 160 9
20 164 5
20 168 8
20 169 1
20 172 4
20 173 3
20 176 10
20 196 6
20 200 3
20 203 7
20 205 2
20 212 1
20 217 9
20 222 5
20 223 6
20 226 4
20 229 9
20 240 10
20 241 5
20 248 5
20 259 1
20 263 7
20 267 5
20 274 5
20 275 6
20 277 7
20 278 10
20 287 4
20 289 5
20 291 6
20 299 7
20 300 7
21 33 5
21 36 1
21 46 9
21 58 3
21 62 7
21 67 4
21 70 9
21 77 10
21 79 1
21 81 7
21 85 6
21 86 2
21 87 6
21 90 8
21 94 9
21 96 7
21 97 7
21 102 9
21 104 1
21 112 8
21 113 9
21 114 3
21 117 8
21 121 2
21 128 2
21 129 1
21 131 2
21 135 10
21 137 2
21 140 2
21 142 10
21 144 9
21 160 9
21 161 8
21 164 5
21 168 8
21 172 4
21 197 8
21 199 9
21 204 1
21 206 10
21 209 7
21 220 5
21 221 5
21 227 7
21 238 6
21 243 4
21 246 5
21 271 9
21 272 3
21 277 1
21 282 4
21 285 1
21 289 5
21 292 10
21 298 1
22 27 10
22 39 5
22 44 10
22 51 8
22 54 5
22 57 4
22 60 9
22 65 3
22 71 7
22 77 2
22 78 7
22 89 2
22 93 3
22 102 2
22 103 3
22 106 4
22 117 4
22 119 6
22 121 3
22 122 7
22 128 8
22 129 2
22 133 7
22 135 1
22 137 4
22 140 3
22 144 10
22 149 7
22 161 8
22 162 3
22 166 8
22 176 1
22 180 7
22 184 7
22 189 8
22 193 1
22 194 2
22 196 5
22 201 8
22 205 8
22 206 9
22 207 3
22 217 4
22 219 1
22 226 1
22 228 9
22 231 8
22 238 2
22 240 4
22 241 7
22 242 10
22 247 4
22 255 5
22 256 10
22 259 3
22 261 6
22 278 8
22 288 6
22 289 3
22 293 10
22 296 7
22 298 10
23 29 9
23 30 9
23 32 6
23 39 3
23 43 3
23 46 1
23 50 10
23 52 5
23 57 1
23 58 1
23 62 6
23 64 1
23 66 7
23 67 3
23 69 5
23 73 5
23 83 1
23 88 8
23 93 8
23 98 8
23 103 5
23 106 5
23 108 10
23 119 10
23 124 4
23 127 7
23 133 4
23 138 1
23 143 4
23 148 1
23 158 5
23 159 9
23 161 8
23 166 6
23 172 9
23 175 6
23 179 7
23 181 2
23 187 6
23 199 8
23 202 1
23 208 9
23 216 2
23 219 4
23 232 5
23 234 1
23 241 4
23 242 6
23 243 9
23 249 6
23 258 9
23 260 4
23 265 7
23 267 5
23 275 7
23 280 10
23 283 9
23 284 8
23 297 3
24 32 10
24 46 10
24 48 9
24 49 8
24 51 2
24 64 4
24 66 7
24 67 7
24 68 6
24 69 9
24 74 6
24 78 10
24 81 10
24 87 10
24 89 9
24 102 8
24 103 2
24 105 10
24 107 5
24 108 5
24 110 2
24 111 8
24 132 10
24 140 5
24 146 2
24 150 3
24 153 8
24 155 6
24 157 7
24 167 5
24 168 4
24 170 6
24 177 2
24 183 6
24 189 5
24 203 2
24 204 7
24 209 2
24 215 8
24 234 3
24 247 7
24 262 6
24 264 10
24 265 9
24 275 7
24 279 2
24 282 6
24 287 7
24 289 3
24 290 3
24 293 3
24 299 4
25 27 3
25 28 8
25 36 8
25 40 9
25 41 1
25 45 3
25 52 6
25 59 10
25 65 4
25 67 1
25 72 9
25 73 8
25 75 3
25 78 6
25 81 7
25 106 10
25 108 9
25 110 7
25 114 10
25 118 1
25 122 2
25 123 9
25 124 3
25 130 1
25 139 7
25 143 2
25 148 9
25 158 7
25 163 7
25 170 5
25 171 4
25 173 6
25 174 3
25 180 5
25 185 4
25 189 5
25 191 3
25 195 2
25 196 9
25 198 4
25 201 4
25 203 10
25 205 8
25 211 3
25 213 5
25 227 3
25 228 6
25 235 1
25 236 3
25 247 6
25 256 9
25 268 2
25 274 10
25 277 2
25 278 3
25 280 8
25 287 1
25 296 3
25 297 7
25 299 3
26 28 9
26 34 10
26 42 6
26 45 2
26 46 1
26 48 4
26 57 5
26 63 8
26 65 6
26 75 2
26 82 5
26 85 4
26 86 2
26 87 2
26 92 7
26 95 1
26 101 10
26 110 8
26 113 8
26 121 8
26 124 10
26 129 10
26 132 2
26 139 4
26 140 3
26 143 10
26 149 8
26 151 7
26 155 7
26 170 8
26 191 5
26 194 2
26 197 2
26 205 9
26 209 9
26 210 6
26 220 5
26 224 7
26 227 1
26 229 5
26 230 8
26 232 9
26 237 10
26 239 6
26 240 1
26 241 2
26 244 7
26 245 5
26 247 7
26 249 6
26 252 1
26 257 1
26 258 10
26 263 6
26 265 9
26 273 2
26 284 3
26 287 3
26 289 4
26 295 7
27 29 9
27 32 2
27 40 1
27 42 3
27 48 3
27 50 3
27 51 10
27 56 3
27 60 1
27 67 6
27 70 3
27 71 10
27 74 6
27 80 10
27 86 5
27 87 6
27 109 9
27 112 6
27 127 9
27 133 3
27 135 5
27 137 1
27 140 7
27 148 2
27 152 9
27 153 6
27 163 2
27 168 3
27 180 4
27 185 1
27 195 10
27 198 6
27 201 8
27 203 8
27 213 6
27 221 7
27 222 1
27 231 6
27 242 9
27 244 5
27 245 3
27 248 4
27 251 7
27 255 7
27 269 1
27 282 6
27 292 6
27 294 4
27 295 9
28 31 6
28 32 5
28 50 7
28 58 6
28 61 7
28 63 5
28 67 3
28 72 7
28 74 10
28 77 7
28 78 8
28 87 1
28 95 2
28 98 6
28 102 10
28 105 9
28 106 2
28 117 7
28 129 9
28 130 9
28 137 10
28 139 1
28 148 10
28 154 3
28 155 9
28 159 8
28 162 5
28 170 8
28 175 10
28 176 3
28 186 6
28 199 5
28 203 8
28 210 6
28 212 6
28 216 2
28 222 6
28 224 7
28 226 10
28 236 5
28 238 9
28 239 2
28 258 6
28 260 3
28 264 10
28 278 8
28 283 4
28 287 4
29 30 7
29 33 2
29 34 7
29 36 10
29 41 5
29 47 10
29 56 3
29 58 9
29 61 2
29 66 9
29 71 7
29 78 6
29 80 6
29 83 10
29 88 8
29 93 1
29 97 2
29 103 6
29 104 2
29 108 4
29 109 6
29 120 1
29 122 6
29 130 5
29 137 6
29 157 10
29 162 8
29 172 6
29 174 7
29 183 1
29 187 5
29 191 3
29 199 4
29 201 2
29 202 8
29 204 7
29 235 4
29 237 3
29 244 6
29 263 4
29 264 4
29 268 10
29 273 8
29 274 8
29 275 7
29 279 1
29 285 4
29 296 1
29 297 4
30 32 5
30 42 5
30 55 1
30 61 8
30 62 5
30 64 4
30 68 9
30 75 2
30 76 6
30 80 4
30 81 2
30 82 1
30 86 6
30 90 10
30 93 8
30 97 10
30 98 1
30 103 7
30 109 8
30 111 5
30 115 10
30 122 1
30 133 10
30 136 9
30 141 1
30 146 10
30 165 2
30 166 4
30 167 2
30 168 6
30 172 9
30 177 4
30 178 8
30 184 10
30 196 4
30 201 7
30 211 4
30 219 6
30 223 9
30 226 8
30 229 5
30 232 3
30 235 4
30 236 1
30 238 9
30 241 10
30 253 5
30 256 4
30 264 5
30 267 6
30 268 5
30 277 10
30 278 9
30 280 1
30 282 3
30 288 2
30 291 6
30 295 2
30 297 6
31 39 6
31 45 3
31 48 8
31 49 5
31 51 7
31 59 5
31 63 8
31 69 7
31 71 9
31 72 8
31 74 6
31 75 10
31 79 8
31 83 8
31 95 1
31 104 9
31 107 2
31 109 10
31 111 6
31 113 2
31 115 10
31 116 8
31 117 8
31 119 7
31 122 5
31 129 7
31 132 1
31 139 8
31 148 5
31 150 2
31 156 9
31 161 5
31 163 4
31 164 3
31 165 8
31 169 3
31 180 1
31 181 6
31 188 8
31 196 3
31 215 2
31 217 7
31 218 7
31 223 4
31 224 10
31 226 2
31 227 7
31 229 4
31 230 5
31 252 3
31 266 9
31 269 7
31 274 10
31 280 5
31 287 10
31 289 2
31 291 6
31 300 10
32 34 5
32 45 4
32 57 5
32 58 9
32 60 4
32 75 4
32 76 10
32 77 6
32 80 10
32 87 10
32 88 10
32 90 9
32 93 7
32 99 10
32 100 8
32 106 2
32 109 9
32 115 1
32 118 4
32 120 6
32 122 2
32 127 7
32 131 5
32 137 5
32 138 8
32 142 5
32 143 6
32 147 10
32 148 7
32 149 2
32 150 5
32 151 4
32 157 8
32 160 9
32 165 8
32 171 8
32 174 9
32 176 5
32 184 7
32 188 8
32 190 3
32 191 9
32 198 7
32 203 3
32 204 3
32 214 9
32 216 4
32 222 4
32 225 7
32 238 2
32 239 3
32 247 2
32 252 4
32 254 5
32 264 4
32 272 5
32 274 10
32 275 3
32 281 6
32 298 3
33 37 8
33 59 10
33 61 3
33 67 3
33 68 6
33 71 6
33 74 10
33 78 8
33 82 2
33 83 3
33 84 3
33 85 10
33 86 4
33 87 8
33 91 2
33 94 6
33 96 9
33 110 1
33 111 4
33 114 8
33 118 7
33 119 3
33 124 9
33 132 5
33 138 2
33 141 9
33 144 1
33 150 1
33 156 8
33 166 8
33 173 10
33 176 4
33 181 4
33 187 1
33 192 10
33 195 10
33 198 5
33 199 5
33 200 5
33 212 1
33 213 10
33 214 5
33 220 7
33 225 6
33 229 9
33 231 4
33 233 1
33 238 8
33 240 4
33 243 7
33 251 6
33 254 10
33 258 3
33 259 2
33 263 3
33 266 1
33 268 9
33 273 9
33 280 9
33 281 3
33 283 4
33 286 5
33 298 9
34 43 6
34 46 6
34 49 5
34 50 5
34 51 6
34 54 2
34 55 10
34 58 1
34 67 8
34 71 2
34 77 7
34 79 6
34 88 9
34 90 9
34 94 5
34 95 8
34 102 6
34 109 6
34 111 6
34 119 9
34 120 8
34 121 3
34 124 2
34 125 6
34 130 9
34 136 6
34 137 7
34 139 1
34 144 1
34 147 3
34 149 6
34 151 4
34 154 6
34 155 9
34 162 5
34 166 4
34 167 2
34 171 1
34 174 7
34 182 1
34 186 5
34 192 3
34 197 6
34 205 7
34 209 4
34 218 1
34 223 5
34 244 6
34 249 7
34 252 7
34 253 9
34 259 6
34 275 2
34 280 6
34 282 10
34 286 10
34 291 2
34 294 8
34 297 7
35 38 9
35 43 9
35 47 4
35 52 9
35 76 2
35 79 5
35 91 1
35 92 9
35 93 3
35 95 8
35 97 8
35 101 9
35 105 7
35 108 8
35 110 9
35 113 7
35 116 7
35 134 5
35 137 1
35 139 2
35 146 7
35 148 2
35 151 9
35 154 8
35 160 8
35 161 8
35 165 1
35 167 7
35 169 7
35 173 2
35 174 4
35 179 4
35 180 1
35 182 9
35 193 3
35 194 4
35 195 3
35 199 10
35 202 8
35 215 9
35 216 5
35 225 5
35 227 8
35 232 3
35 237 5
35 241 1
35 247 3
35 248 4
35 249 4
35 251 9
35 260 8
35 265 10
35 266 8
35 274 2
35 276 10
35 280 6
35 286 7
35 287 3
35 295 3
36 41 8
36 54 4
36 61 3
36 63 1
36 66 4
36 68 6
36 69 3
36 71 7
36 77 8
36 79 7
36 93 2
36 94 5
36 97 10
36 98 9
36 101 6
36 111 9
36 120 8
36 121 8
36 123 2
36 127 2
36 132 5
36 133 3
36 134 3
36 138 2
36 141 2
36 146 3
36 152 10
36 155 8
36 159 10
36 172 2
36 173 10
36 185 7
36 190 2
36 192 8
36 193 1
36 194 7
36 195 2
36 196 4
36 200 7
36 201 8
36 206 9
36 214 2
36 228 7
36 236 5
36 237 6
36 244 6
36 252 3
36 253 9
36 258 3
36 259 6
36 260 7
36 263 9
36 273 1
36 277 4
36 279 4
36 285 9
36 286 6
36 287 2
36 295 5
36 300 10
37 38 9
37 39 8
37 47 1
37 52 6
37 55 4
37 63 6
37 66 9
37 71 5
37 79 2
37 80 5
37 81 2
37 87 3
37 99 6
37 107 1
37 110 1
37 116 6
37 120 5
37 124 3
37 133 6
37 146 2
37 147 3
37 149 7
37 154 8
37 155 2
37 156 1
37 164 3
37 166 6
37 167 3
37 170 5
37 181 10
37 183 4
37 194 10
37 196 3
37 199 4
37 201 7
37 207 7
37 217 5
37 222 2
37 238 5
37 241 9
37 244 2
37 254 3
37 261 6
37 266 10
37 269 2
37 271 6
37 272 1
37 276 6
37 280 2
37 283 6
37 294 1
37 299 1
38 41 4
38 42 3
38 49 1
38 54 10
38 61 10
38 66 1
38 70 10
38 83 1
38 84 9
38 88 7
38 94 8
38 95 5
38 102 9
38 108 2
38 114 4
38 118 2
38 126 2
38 129 2
38 130 6
38 132 4
38 133 7
38 135 5
38 136 5
38 139 1
38 140 8
38 150 2
38 155 10
38 156 8
38 164 8
38 169 2
38 178 6
38 188 8
38 194 5
38 195 8
38 209 1
38 214 4
38 218 7
38 220 5
38 221 5
38 225 3
38 232 9
38 245 1
38 247 8
38 255 3
38 256 3
38 258 5
38 268 2
38 274 2
38 279 8
38 285 5
38 294 7
39 42 4
39 43 4
39 49 6
39 53 3
39 54 2
39 55 6
39 59 6
39 68 2
39 71 6
39 83 2
39 100 7
39 103 10
39 104 4
39 108 5
39 109 10
39 120 5
39 123 10
39 138 2
39 140 6
39 142 9
39 146 4
39 147 1
39 158 7
39 161 10
39 168 10
39 174 9
39 179 7
39 182 8
39 186 7
39 200 2
39 211 5
39 220 10
39 229 9
39 240 4
39 241 10
39 242 3
39 243 10
39 244 6
39 245 4
39 248 10
39 250 3
39 252 6
39 262 2
39 263 8
39 264 8
39 265 4
39 271 5
39 276 5
39 285 10
40 41 6
40 45 4
40 46 9
40 48 8
40 52 9
40 55 4
40 58 10
40 61 6
40 62 9
40 65 3
40 68 6
40 69 1
40 71 1
40 75 4
40 76 8
40 77 10
40 79 4
40 82 8
40 95 8
40 98 1
40 105 4
40 106 4
40 113 6
40 128 10
40 132 7
40 137 9
40 139 2
40 143 5
40 152 2
40 155 4
40 156 6
40 159 4
40 161 8
40 162 7
40 163 10
40 169 6
40 172 4
40 182 8
40 185 7
40 191 5
40 193 1
40 196 2
40 205 10
40 210 3
40 211 7
40 217 2
40 222 9
40 224 8
40 228 3
40 230 6
40 246 6
40 250 8
40 252 8
40 254 3
40 260 9
40 261 4
40 263 1
40 265 9
40 266 5
40 267 9
40 271 1
40 273 8
40 276 9
40 277 8
40 281 7
40 284 1
40 293 4
41 42 2
41 44 1
41 54 3
41 55 10
41 65 2
41 67 7
41 69 5
41 70 4
41 76 10
41 80 3
41 86 2
41 102 9
41 122 8
41 136 2
41 150 4
41 156 6
41 164 4
41 176 4
41 177 7
41 180 6
41 182 1
41 191 8
41 193 9
41 208 7
41 211 5
41 213 4
41 214 6
41 220 5
41 222 9
41 227 1
41 229 8
41 234 3
41 236 10
41 240 4
41 243 9
41 251 3
41 257 8
41 259 5
41 260 8
41 263 9
41 264 10
41 266 7
41 267 1
41 268 7
41 272 10
41 276 3
41 289 6
41 290 9
41 295 2
41 297 9
42 43 9
42 45 8
42 52 9
42 53 8
42 57 7
42 64 2
42 69 2
42 78 10
42 79 8
42 88 4
42 96 7
42 99 4
42 102 8
42 108 4
42 110 7
42 120 5
42 121 2
42 129 1
42 132 4
42 134 9
42 140 4
42 141 8
42 145 9
42 147 10
42 149 2
42 167 2
42 174 10
42 184 3
42 185 8
42 186 1
42 187 4
42 192 9
42 197 10
42 200 5
42 204 4
42 207 8
42 208 8
42 217 7
42 225 5
42 226 10
42 232 5
42 235 6
42 237 7
42 250 1
42 257 4
42 275 6
42 281 2
42 283 2
42 287 7
42 289 4
42 297 5
42 298 5
43 47 9
43 49 2
43 54 8
43 55 8
43 57 6
43 64 1
43 75 1
43 76 4
43 82 6
43 98 4
43 99 10
43 108 6
43 110 2
43 111 4
43 120 8
43 121 3
43 137 4
43 139 4
43 148 4
43 153 10
43 157 8
43 164 4
43 171 3
43 185 5
43 190 1
43 191 3
43 198 8
43 212 8
43 213 4
43 216 8
43 231 4
43 233 4
43 236 1
43 242 5
43 246 1
43 247 8
43 251 3
43 254 8
43 259 9
43 266 6
43 267 1
43 268 7
43 269 1
43 273 7
43 274 5
43 277 10
43 281 1
43 287 7
43 289 9
43 291 2
43 295 8
43 297 2
44 45 9
44 47 7
44 52 9
44 56 3
44 66 6
44 92 10
44 95 2
44 100 5
44 102 3
44 119 9
44 129 4
44 131 10
44 142 5
44 145 2
44 151 3
44 166 7
44 168 10
44 173 3
44 176 6
44 177 6
44 181 3
44 186 6
44 187 1
44 191 5
44 192 4
44 193 2
44 194 1
44 196 6
44 203 8
44 204 1
44 205 3
44 207 9
44 211 4
44 224 2
44 225 2
44 229 1
44 230 7
44 233 3
44 235 2
44 242 5
44 248 8
44 249 7
44 251 9
44 265 3
44 284 5
44 292 8
44 297 10
44 298 2
45 47 3
45 51 9
45 66 5
45 73 2
45 74 9
45 78 5
45 79 7
45 83 7
45 92 6
45 93 2
45 105 4
45 110 7
45 113 8
45 118 10
45 125 6
45 130 2
45 134 6
45 135 6
45 136 3
45 139 2
45 142 9
45 148 6
45 158 7
45 162 7
45 167 8
45 170 7
45 173 5
45 184 5
45 185 1
45 188 10
45 193 4
45 195 3
45 202 9
45 205 6
45 208 5
45 213 4
45 217 3
45 221 8
45 224 1
45 227 1
45 229 9
45 230 3
45 238 4
45 240 5
45 247 1
45 251 9
45 253 5
45 256 8
45 261 10
45 262 6
45 264 1
45 265 8
45 266 6
45 269 3
45 272 4
45 275 2
45 283 9
45 289 2
45 290 10
46 51 8
46 55 3
46 56 1
46 66 1
46 69 6
46 70 4
46 76 2
46 88 6
46 97 2
46 104 5
46 106 5
46 108 6
46 111 8
46 115 9
46 116 6
46 119 9
46 128 4
46 129 9
46 132 9
46 139 10
46 141 10
46 142 1
46 145 3
46 146 7
46 155 9
46 156 1
46 160 8
46 162 9
46 167 5
46 173 5
46 181 4
46 189 3
46 196 4
46 197 5
46 199 2
46 202 5
46 207 7
46 211 8
46 214 1
46 219 8
46 220 3
46 227 5
46 230 1
46 240 8
46 244 2
46 250 4
46 252 1
46 262 8
46 267 2
46 269 1
46 270 1
46 281 10
46 284 2
46 294 6
46 300 3
47 48 8
47 52 9
47 56 7
47 61 9
47 63 2
47 73 4
47 75 3
47 76 4
47 78 7
47 81 10
47 85 6
47 89 2
47 94 1
47 97 8
47 100 2
47 101 9
47 102 2
47 108 7
47 113 3
47 114 4
47 121 8
47 136 10
47 137 2
47 140 1
47 148 9
47 150 2
47 163 1
47 164 7
47 169 6
47 175 7
47 176 10
47 177 6
47 178 4
47 183 1
47 184 6
47 188 10
47 196 3
47 203 6
47 205 1
47 213 4
47 215 2
47 219 7
47 226 2
47 228 4
47 241 10
47 248 5
47 250 8
47 254 10
47 256 8
47 257 3
47 270 10
47 271 1
47 274 5
47 276 8
47 277 6
47 278 1
47 294 5
47 295 4
47 297 2
47 298 4
48 52 3
48 58 3
48 59 9
48 71 8
48 80 4
48 87 3
48 92 2
48 93 10
48 98 1
48 118 2
48 127 8
48 135 10
48 139 3
48 142 7
48 158 10
48 161 6
48 180 4
48 191 10
48 194 2
48 196 9
48 199 3
48 202 3
48 206 5
48 207 1
48 209 8
48 213 5
48 218 1
48 228 6
48 230 4
48 232 2
48 242 2
48 243 2
48 252 10
48 254 5
48 259 10
48 260 1
48 261 8
48 262 5
48 264 10
48 265 9
48 266 6
48 268 8
48 276 9
48 280 5
49 53 4
49 57 8
49 62 8
49 67 7
49 74 5
49 79 4
49 89 5
49 92 7
49 108 1
49 112 8
49 113 6
49 114 9
49 119 7
49 124 1
49 131 10
49 150 8
49 153 2
49 158 6
49 165 10
49 170 10
49 197 1
49 198 1
49 212 3
49 221 6
49 231 6
49 241 2
49 248 9
49 254 2
49 259 5
49 265 7
49 269 5
49 270 2
49 271 8
49 273 1
49 275 1
49 276 2
49 280 8
49 281 6
49 284 3
49 295 1
50 57 1
50 69 6
50 76 6
50 80 1
50 88 9
50 92 7
50 93 7
50 96 3
50 101 9
50 102 5
50 117 1
50 120 9
50 128 9
50 133 8
50 136 2
50 137 8
50 144 2
50 145 8
50 147 4
50 153 10
50 154 5
50 157 6
50 159 4
50 162 2
50 168 6
50 169 10
50 174 10
50 190 7
50 196 3
50 197 7
50 199 6
50 203 9
50 206 3
50 210 9
50 225 6
50 231 1
50 237 1
50 242 8
50 244 10
50 246 4
50 248 3
50 251 9
50 252 9
50 258 6
50 263 10
50 286 1
51 55 1
51 57 2
51 58 5
51 73 1
51 76 9
51 82 5
51 96 6
51 101 7
51 104 5
51 110 5
51 116 4
51 122 3
51 125 1
51 129 8
51 131 8
51 132 8
51 135 6
51 136 6
51 138 6
51 140 8
51 141 2
51 142 9
51 157 3
51 173 9
51 175 9
51 177 7
51 178 8
51 185 2
51 188 1
51 197 1
51 199 1
51 204 4
51 206 9
51 207 8
51 213 9
51 218 1
51 223 1
51 228 2
51 231 10
51 238 7
51 239 10
51 242 2
51 247 8
51 255 8
51 256 10
51 260 1
51 262 1
51 263 3
51 268 4
51 289 2
51 292 10
51 298 9
52 55 2
52 56 1
52 60 1
52 72 6
52 84 4
52 86 8
52 97 5
52 115 8
52 117 9
52 123 6
52 138 2
52 142 10
52 144 1
52 153 8
52 157 8
52 160 6
52 164 2
52 165 6
52 169 9
52 176 1
52 177 3
52 184 5
52 186 10
52 189 2
52 191 3
52 198 7
52 200 8
52 203 9
52 206 2
52 209 8
52 218 4
52 221 2
52 227 6
52 229 5
52 231 4
52 233 7
52 234 8
52 235 3
52 238 7
52 244 4
52 246 9
52 251 5
52 255 9
52 263 2
52 270 10
52 279 3
52 282 1
52 285 8
52 286 9
52 287 1
52 290 3
52 296 3
52 297 9
53 61 8
53 64 3
53 67 6
53 68 5
53 70 6
53 72 6
53 86 6
53 92 3
53 95 8
53 96 7
53 99 2
53 102 2
53 110 8
53 111 1
53 112 3
53 114 4
53 121 2
53 122 5
53 129 7
53 133 4
53 143 9
53 147 3
53 148 6
53 149 8
53 152 1
53 156 5
53 160 8
53 164 7
53 170 7
53 175 4
53 176 1
53 182 6
53 183 7
53 186 10
53 190 1
53 210 7
53 217 3
53 218 5
53 219 7
53 222 4
53 230 1
53 231 6
53 234 3
53 236 1
53 246 5
53 249 9
53 251 10
53 252 2
53 253 3
53 254 2
53 259 8
53 263 5
53 264 6
53 268 8
53 270 3
53 276 6
53 279 7
54 56 2
54 59 6
54 71 9
54 100 7
54 105 2
54 110 8
54 111 4
54 112 6
54 113 7
54 117 6
54 123 9
54 125 5
54 126 9
54 131 6
54 135 3
54 138 6
54 144 1
54 145 2
54 154 1
54 157 3
54 160 5
54 165 1
54 167 3
54 176 6
54 180 1
54 186 2
54 187 8
54 190 5
54 194 7
54 200 10
54 209 8
54 219 5
54 222 9
54 223 8
54 224 8
54 235 9
54 251 3
54 253 6
54 263 4
54 266 5
54 269 4
54 292 5
54 295 8
54 297 6
55 56 9
55 59 8
55 62 8
55 76 4
55 80 4
55 89 10
55 90 4
55 92 6
55 93 4
55 100 8
55 103 9
55 108 6
55 109 3
55 111 4
55 112 3
55 120 1
55 127 10
55 131 5
55 137 3
55 140 10
55 147 8
55 157 1
55 162 2
55 164 8
55 166 10
55 169 8
55 170 7
55 176 1
55 177 9
55 178 6
55 179 3
55 180 2
55 182 1
55 189 5
55 191 5
55 202 3
55 203 2
55 207 3
55 208 7
55 209 5
55 211 3
55 217 6
55 219 3
55 221 2
55 222 1
55 223 2
55 226 7
55 236 10
55 241 4
55 251 3
55 252 6
55 258 4
55 260 3
55 262 8
55 264 5
55 276 9
55 277 5
55 278 3
55 288 7
55 290 10
55 292 5
55 296 10
56 60 6
56 64 1
56 72 4
56 75 1
56 82 9
56 86 6
56 95 4
56 113 6
56 115 2
56 120 10
56 125 3
56 127 8
56 128 1
56 129 7
56 134 4
56 135 1
56 148 8
56 149 3
56 150 3
56 151 2
56 152 4
56 154 10
56 163 1
56 167 9
56 175 3
56 193 5
56 195 10
56 203 6
56 207 2
56 208 2
56 210 4
56 213 6
56 215 6
56 223 1
56 228 8
56 245 1
56 267 4
56 273 4
56 279 4
56 280 3
56 282 4
56 283 3
56 285 10
56 287 2
56 295 4
56 299 6
56 300 6
57 60 2
57 63 3
57 68 7
57 75 3
57 81 3
57 82 4
57 87 5
57 97 1
57 117 8
57 122 8
57 125 1
57 126 2
57 128 10
57 131 3
57 139 9
57 144 1
57 151 3
57 155 9
57 159 10
57 161 4
57 170 9
57 175 10
57 179 3
57 189 3
57 194 2
57 196 8
57 199 7
57 205 10
57 208 3
57 213 3
57 221 9
57 228 10
57 234 10
57 236 6
57 244 9
57 249 2
57 253 10
57 254 6
57 267 9
57 282 4
57 283 4
57 288 2
57 291 4
57 292 1
57 295 5
58 60 3
58 62 9
58 63 3
58 71 8
58 75 2
58 87 9
58 89 8
58 91 2
58 96 5
58 97 8
58 98 8
58 100 4
58 107 3
58 108 3
58 117 8
58 119 2
58 122 6
58 135 2
58 139 7
58 140 8
58 145 5
58 159 1
58 175 5
58 184 9
58 185 7
58 198 10
58 201 3
58 202 7
58 208 5
58 211 3
58 215 1
58 229 10
58 238 6
58 242 6
58 262 6
58 263 2
58 266 8
58 276 10
58 280 1
58 282 3
58 300 1
59 61 10
59 72 8
59 81 8
59 84 4
59 85 7
59 87 1
59 91 1
59 92 1
59 95 10
59 99 8
59 108 10
59 114 7
59 132 10
59 135 2
59 143 10
59 147 2
59 153 9
59 154 8
59 156 4
59 172 9
59 173 7
59 176 7
59 179 5
59 181 9
59 184 5
59 189 10
59 192 3
59 198 8
59 199 2
59 201 3
59 203 1
59 208 3
59 209 8
59 218 10
59 226 2
59 228 2
59 235 2
59 244 10
59 246 10
59 253 9
59 257 1
59 260 7
59 262 8
59 265 3
59 270 1
59 272 1
59 279 3
59 285 3
59 289 6
59 291 5
59 294 7
59 299 10
60 81 2
60 82 6
60 84 6
60 86 7
60 88 2
60 92 2
60 98 8
60 99 9
60 100 7
60 113 3
60 114 8
60 115 7
60 132 5
60 143 10
60 146 6
60 147 3
60 158 1
60 163 3
60 165 8
60 169 3
60 170 2
60 174 8
60 176 5
60 179 9
60 180 7
60 184 7
60 189 3
60 195 2
60 205 7
60 207 6
60 210 3
60 212 4
60 216 9
60 228 9
60 240 4
60 245 4
60 252 7
60 255 2
60 259 2
60 261 10
60 262 1
60 265 3
60 281 5
60 283 9
60 285 7
60 287 4
61 69 7
61 74 4
61 76 4
61 77 10
61 80 1
61 83 5
61 85 10
61 86 10
61 91 6
61 93 4
61 95 10
61 111 10
61 115 10
61 121 5
61 127 4
61 128 6
61 138 6
61 143 9
61 148 3
61 164 10
61 166 10
61 172 1
61 180 4
61 183 1
61 190 1
61 191 3
61 198 1
61 202 5
61 204 3
61 207 7
61 210 3
61 212 9
61 216 6
61 217 5
61 225 2
61 226 3
61 234 7
61 243 5
61 244 3
61 245 7
61 247 6
61 251 4
61 256 6
61 257 10
61 258 10
61 261 1
61 271 4
61 278 1
61 284 3
61 286 4
61 287 10
61 288 5
61 290 6
61 295 9
61 296 2
62 68 6
62 71 7
62 85 9
62 86 2
62 88 1
62 89 10
62 90 3
62 91 2
62 94 1
62 109 3
62 122 2
62 128 9
62 134 9
62 138 2
62 170 9
62 191 3
62 194 10
62 201 3
62 208 8
62 217 1
62 226 7
62 233 8
62 236 8
62 241 1
62 252 1
62 254 8
62 258 9
62 265 3
62 268 3
62 276 1
62 278 8
62 285 7
62 289 9
62 290 3
62 297 1
62 298 7
63 65 4
63 72 4
63 73 9
63 85 9
63 87 3
63 89 6
63 93 8
63 96 1
63 100 8
63 103 3
63 104 9
63 108 4
63 111 8
63 112 5
63 113 5
63 114 3
63 117 9
63 128 10
63 129 8
63 130 6
63 131 2
63 137 9
63 151 1
63 165 9
63 183 7
63 185 9
63 186 5
63 192 8
63 198 9
63 204 1
63 207 3
63 210 7
63 217 10
63 225 4
63 226 3
63 233 2
63 238 4
63 243 1
63 247 7
63 249 4
63 251 8
63 253 3
63 254 4
63 256 5
63 257 5
63 260 8
63 264 5
63 266 4
63 268 2
63 271 7
63 274 1
63 276 7
63 277 9
63 282 3
63 285 9
63 289 10
63 290 9
63 293 9
63 298 3
64 65 6
64 67 5
64 69 2
64 76 7
64 84 9
64 85 9
64 86 5
64 87 8
64 96 3
64 97 4
64 101 2
64 107 3
64 116 3
64 121 8
64 125 1
64 130 6
64 143 5
64 145 8
64 147 4
64 156 3
64 157 2
64 169 8
64 172 1
64 173 6
64 174 9
64 175 10
64 193 2
64 194 10
64 195 2
64 202 2
64 211 3
64 217 9
64 228 1
64 233 10
64 236 3
64 239 8
64 240 10
64 248 7
64 254 10
64 258 4
64 259 7
64 261 8
64 263 9
64 268 8
64 282 8
64 295 6
64 298 6
64 299 7
64 300 1
65 71 2
65 72 3
65 79 2
65 85 9
65 87 3
65 97 10
65 100 9
65 112 4
65 114 4
65 118 10
65 122 2
65 133 8
65 141 8
65 144 2
65 149 6
65 160 5
65 162 4
65 163 7
65 166 10
65 170 8
65 181 7
65 184 3
65 185 5
65 193 1
65 195 10
65 196 4
65 207 2
65 209 3
65 211 9
65 216 9
65 218 9
65 226 6
65 230 4
65 235 9
65 238 8
65 241 7
65 243 9
65 259 9
65 261 2
65 264 5
65 273 2
65 284 2
65 285 1
65 289 2
65 296 10
65 299 4
66 67 10
66 69 9
66 70 9
66 71 10
66 77 1
66 78 1
66 81 4
66 83 8
66 94 2
66 104 10
66 113 10
66 114 3
66 116 3
66 120 5
66 123 3
66 126 2
66 131 10
66 132 1
66 137 6
66 138 2
66 141 9
66 142 5
66 144 1
66 145 10
66 150 4
66 165 7
66 166 7
66 172 5
66 175 9
66 178 1
66 188 7
66 191 6
66 194 6
66 200 6
66 205 1
66 210 2
66 223 1
66 224 10
66 225 10
66 242 1
66 253 8
66 254 5
66 261 5
66 264 9
66 265 9
66 267 1
66 268 1
66 274 5
66 276 7
66 278 7
66 279 1
66 282 1
66 286 4
66 288 5
67 76 2
67 78 7
67 82 2
67 85 6
67 103 2
67 106 9
67 111 1
67 113 5
67 119 7
67 124 4
67 126 6
67 130 1
67 139 4
67 141 3
67 147 8
67 162 10
67 167 8
67 170 4
67 178 5
67 182 2
67 183 5
67 185 8
67 188 9
67 189 4
67 196 3
67 200 6
67 202 8
67 209 2
67 227 10
67 229 8
67 234 10
67 237 5
67 247 9
67 249 6
67 250 5
67 258 8
67 261 3
67 263 6
67 265 3
67 271 2
67 273 9
67 276 4
67 277 4
67 281 6
67 284 2
68 78 5
68 87 5
68 94 9
68 96 3
68 100 8
68 101 6
68 107 9
68 110 5
68 113 6
68 117 1
68 132 10
68 144 5
68 151 9
68 158 8
68 159 8
68 164 2
68 167 7
68 168 9
68 170 5
68 171 2
68 172 10
68 173 4
68 175 8
68 184 7
68 191 2
68 192 8
68 197 1
68 206 9
68 212 4
68 222 7
68 224 9
68 226 3
68 231 5
68 239 4
68 251 4
68 253 2
68 259 6
68 260 10
68 261 5
68 296 3
68 298 10
69 87 1
69 94 3
69 95 9
69 106 5
69 107 6
69 109 2
69 140 6
69 142 5
69 145 6
69 147 9
69 149 2
69 153 8
69 154 10
69 155 3
69 156 5
69 162 5
69 165 1
69 168 5
69 170 5
69 172 5
69 173 4
69 180 8
69 190 2
69 191 6
69 202 6
69 205 10
69 207 9
69 214 10
69 221 1
69 223 7
69 224 9
69 226 6
69 227 6
69 229 9
69 230 1
69 232 4
69 235 2
69 236 8
69 241 2
69 245 8
69 247 7
69 248 5
69 251 10
69 257 5
69 258 6
69 262 8
69 266 8
69 269 6
69 271 10
69 272 7
69 279 6
69 292 3
69 296 5
69 299 5
70 71 2
70 73 7
70 78 3
70 81 6
70 97 10
70 98 5
70 102 5
70 118 6
70 123 8
70 128 4
70 132 5
70 137 5
70 146 4
70 159 1
70 171 2
70 173 5
70 174 9
70 177 7
70 185 7
70 189 8
70 191 7
70 193 2
70 199 1
70 201 5
70 202 9
70 206 4
70 211 8
70 213 5
70 220 3
70 225 4
70 230 5
70 234 9
70 240 4
70 242 7
70 252 1
70 261 3
70 262 9
70 263 1
70 273 9
70 275 6
70 276 9
70 297 10
70 299 4
71 73 5
71 74 6
71 81 9
71 82 7
71 96 1
71 100 5
71 101 5
71 105 10
71 129 8
71 133 8
71 146 5
71 149 6
71 154 6
71 162 5
71 168 10
71 175 10
71 180 9
71 184 6
71 188 2
71 194 6
71 196 4
71 207 7
71 208 3
71 210 6
71 219 9
71 223 10
71 224 9
71 227 2
71 238 3
71 241 5
71 246 7
71 261 8
71 262 8
71 279 7
71 283 5
71 286 2
71 293 1
71 294 4
71 299 9
72 74 9
72 78 10
72 79 4
72 88 9
72 93 9
72 102 5
72 106 5
72 116 9
72 123 8
72 128 1
72 134 2
72 137 4
72 145 10
72 152 9
72 161 5
72 162 6
72 173 5
72 179 9
72 182 5
72 184 7
72 195 7
72 196 5
72 197 5
72 199 5
72 201 1
72 202 4
72 203 4
72 207 4
72 212 2
72 218 7
72 219 2
72 230 7
72 239 5
72 240 8
72 265 6
72 266 5
72 270 2
72 271 3
72 296 2
72 300 10
73 80 4
73 87 10
73 93 1
73 94 2
73 96 6
73 99 5
73 111 5
73 112 1
73 114 8
73 122 5
73 128 5
73 144 5
73 159 8
73 174 1
73 179 9
73 190 5
73 194 5
73 195 3
73 199 8
73 219 10
73 223 1
73 225 4
73 226 1
73 235 5
73 236 1
73 238 4
73 240 3
73 244 10
73 250 1
73 253 8
73 254 10
73 256 6
73 259 6
73 261 8
73 262 3
73 266 6
73 275 8
73 284 2
73 285 2
73 287 4
73 288 10
73 292 9
73 293 10
73 295 1
73 298 2
74 79 5
74 80 3
74 81 9
74 85 2
74 96 9
74 99 5
74 102 10
74 104 6
74 105 8
74 110 3
74 113 1
74 114 8
74 115 5
74 118 6
74 119 3
74 128 1
74 131 10
74 133 10
74 139 5
74 145 2
74 150 4
74 160 9
74 161 4
74 162 3
74 165 10
74 166 1
74 169 6
74 170 5
74 172 7
74 173 2
74 174 6
74 182 6
74 183 5
74 184 5
74 190 7
74 193 3
74 209 4
74 214 8
74 217 1
74 225 7
74 237 1
74 238 9
74 243 3
74 245 8
74 249 2
74 253 10
74 267 8
74 269 10
74 272 9
74 281 4
74 284 2
74 285 6
74 292 2
74 299 2
75 81 5
75 87 6
75 90 3
75 91 8
75 92 4
75 102 7
75 106 1
75 108 8
75 118 6
75 119 7
75 124 2
75 125 10
75 134 5
75 139 10
75 140 4
75 141 10
75 143 8
75 147 6
75 149 4
75 152 3
75 169 7
75 170 8
75 171 10
75 173 8
75 177 5
75 179 5
75 182 4
75 188 5
75 189 5
75 203 7
75 207 4
75 209 8
75 210 4
75 211 4
75 215 6
75 217 5
75 218 6
75 232 3
75 244 3
75 245 5
75 252 4
75 257 9
75 260 5
75 261 3
75 267 10
75 268 3
75 279 5
75 285 3
75 290 6
75 292 8
75 294 7
76 79 4
76 84 3
76 87 10
76 90 1
76 93 4
76 94 9
76 96 1
76 101 9
76 103 9
76 105 6
76 115 6
76 117 1
76 118 6
76 124 5
76 131 9
76 135 2
76 137 3
76 140 3
76 146 9
76 152 3
76 157 7
76 161 2
76 163 6
76 165 2
76 179 8
76 182 5
76 184 3
76 188 3
76 194 4
76 198 9
76 220 7
76 235 5
76 236 4
76 244 3
76 245 7
76 249 5
76 254 3
76 256 9
76 257 2
76 259 2
76 263 9
76 266 10
76 267 3
76 268 9
76 290 6
76 292 7
76 293 3
76 296 10
76 298 3
77 102 5
77 104 10
77 106 7
77 108 3
77 113 6
77 121 2
77 122 5
77 128 4
77 137 6
77 141 9
77 142 1
77 143 1
77 148 3
77 151 7
77 152 4
77 154 10
77 157 5
77 160 1
77 161 1
77 165 10
77 166 1
77 170 5
77 180 1
77 181 5
77 184 2
77 190 6
77 208 3
77 212 9
77 233 8
77 236 6
77 237 3
77 239 1
77 242 6
77 248 8
77 255 2
77 260 5
77 261 3
77 268 1
77 270 4
77 271 8
77 272 6
77 277 5
77 281 6
77 284 8
77 287 7
77 293 6
78 79 8
78 89 10
78 99 4
78 101 8
78 103 8
78 108 8
78 124 7
78 125 6
78 129 9
78 130 5
78 132 2
78 139 8
78 145 10
78 158 4
78 161 7
78 165 7
78 167 7
78 168 9
78 173 2
78 182 7
78 192 3
78 194 4
78 197 2
78 198 10
78 199 7
78 209 6
78 212 1
78 221 10
78 223 7
78 232 1
78 241 7
78 248 5
78 261 1
78 278 10
78 283 4
78 284 5
78 288 2
78 289 10
78 293 7
78 295 2
78 298 4
79 82 6
79 98 4
79 99 3
79 109 7
79 116 4
79 117 6
79 118 8
79 120 3
79 125 10
79 128 10
79 129 1
79 130 4
79 131 7
79 137 6
79 140 5
79 142 7
79 144 1
79 145 4
79 150 1
79 151 4
79 153 3
79 172 9
79 177 5
79 180 10
79 186 6
79 187 10
79 190 5
79 193 3
79 198 2
79 199 7
79 201 9
79 224 9
79 237 6
79 243 2
79 254 5
79 262 4
79 265 3
79 268 2
79 277 3
79 279 2
79 284 4
79 286 7
79 288 7
79 293 10
79 297 1
80 84 5
80 86 10
80 93 2
80 108 2
80 111 5
80 114 7
80 115 3
80 117 6
80 123 7
80 124 9
80 127 5
80 132 8
80 136 10
80 149 6
80 150 10
80 152 10
80 161 5
80 163 10
80 167 9
80 172 10
80 179 9
80 181 6
80 185 5
80 188 4
80 195 2
80 197 9
80 202 5
80 207 8
80 213 9
80 215 7
80 216 1
80 223 4
80 225 2
80 234 5
80 238 6
80 240 1
80 241 9
80 251 4
80 256 1
80 267 7
80 270 3
80 273 4
80 274 1
80 275 3
80 293 1
80 299 9
80 300 10
81 83 10
81 99 4
81 100 2
81 110 5
81 118 4
81 133 8
81 137 6
81 143 2
81 147 4
81 152 6
81 154 5
81 157 7
81 161 4
81 166 4
81 169 5
81 189 9
81 190 7
81 192 7
81 196 8
81 201 10
81 203 8
81 204 6
81 206 1
81 208 1
81 209 10
81 218 8
81 221 7
81 226 8
81 228 10
81 230 10
81 231 10
81 243 2
81 244 10
81 250 10
81 253 2
81 258 5
81 267 4
81 271 9
81 272 2
81 277 7
81 280 9
81 287 2
81 290 3
82 87 6
82 89 1
82 98 10
82 99 3
82 101 8
82 102 4
82 103 3
82 112 9
82 115 4
82 117 10
82 126 9
82 142 3
82 143 2
82 144 8
82 145 4
82 148 7
82 150 3
82 152 2
82 157 6
82 159 2
82 164 7
82 185 10
82 188 6
82 190 2
82 200 1
82 201 7
82 202 6
82 208 6
82 211 10
82 215 6
82 222 10
82 242 8
82 250 7
82 251 8
82 267 5
82 275 10
82 276 3
82 279 10
82 283 6
82 290 6
82 295 2
82 298 7
82 300 4
83 85 8
83 89 4
83 93 5
83 95 1
83 103 7
83 105 6
83 108 1
83 109 9
83 112 3
83 113 2
83 121 4
83 125 4
83 126 1
83 137 9
83 138 4
83 153 10
83 157 7
83 158 3
83 164 3
83 170 6
83 172 10
83 173 2
83 175 4
83 190 7
83 191 10
83 205 4
83 211 6
83 215 1
83 217 5
83 219 5
83 223 4
83 224 3
83 227 3
83 237 5
83 252 3
83 255 6
83 261 1
83 262 9
83 265 4
83 271 10
83 276 4
83 290 9
83 297 4
83 299 1
84 88 7
84 91 4
84 94 2
84 99 1
84 103 8
84 104 9
84 110 1
84 115 5
84 118 1
84 119 9
84 120 7
84 127 9
84 128 1
84 129 8
84 130 7
84 131 5
84 132 4
84 140 5
84 144 7
84 149 6
84 152 2
84 155 5
84 163 1
84 165 7
84 169 9
84 178 6
84 179 9
84 182 10
84 191 4
84 198 8
84 202 3
84 205 6
84 218 4
84 219 8
84 224 10
84 226 10
84 230 7
84 232 3
84 237 6
84 240 7
84 253 2
84 260 8
84 262 1
84 271 5
84 274 1
84 275 10
84 278 6
84 288 6
84 291 10
85 87 1
85 90 6
85 93 9
85 94 8
85 96 2
85 97 8
85 98 8
85 127 7
85 130 10
85 131 2
85 141 8
85 142 1
85 145 10
85 150 2
85 154 4
85 155 3
85 164 6
85 170 10
85 175 4
85 176 5
85 179 4
85 181 7
85 183 10
85 187 2
85 196 7
85 198 8
85 213 10
85 219 4
85 220 2
85 222 6
85 226 3
85 228 10
85 232 5
85 236 7
85 244 2
85 245 5
85 246 1
85 251 10
85 253 7
85 258 10
85 264 7
85 266 6
85 272 7
85 274 3
85 276 4
85 278 4
85 279 1
85 280 9
85 294 5
85 299 10
85 300 3
86 88 9
86 92 8
86 96 10
86 97 3
86 98 3
86 104 10
86 107 5
86 112 3
86 115 5
86 121 5
86 124 8
86 127 2
86 134 4
86 141 10
86 143 9
86 147 4
86 160 1
86 162 2
86 169 3
86 170 8
86 175 1
86 180 5
86 190 7
86 200 10
86 212 9
86 213 10
86 222 5
86 223 10
86 229 6
86 234 2
86 237 10
86 239 3
86 241 9
86 251 3
86 259 3
86 264 3
86 271 4
86 282 2
86 283 9
86 295 1
86 299 7
87 88 4
87 94 8
87 104 9
87 109 3
87 110 7
87 113 1
87 118 2
87 119 9
87 120 9
87 121 5
87 124 2
87 125 3
87 143 4
87 146 1
87 151 2
87 157 8
87 168 3
87 169 4
87 180 5
87 188 10
87 192 7
87 193 3
87 198 4
87 202 5
87 203 10
87 207 8
87 208 4
87 219 9
87 222 8
87 223 6
87 225 3
87 231 10
87 239 1
87 240 8
87 242 7
87 248 4
87 251 2
87 256 7
87 259 10
87 263 4
87 282 5
87 283 9
87 284 5
87 286 2
87 288 8
87 293 1
87 295 9
88 101 7
88 105 1
88 107 5
88 108 8
88 122 3
88 123 9
88 126 3
88 131 3
88 132 10
88 133 2
88 136 7
88 148 3
88 152 1
88 156 7
88 163 6
88 174 9
88 176 6
88 180 5
88 191 3
88 195 8
88 197 2
88 201 10
88 205 7
88 209 4
88 212 2
88 217 10
88 219 10
88 222 5
88 223 8
88 232 5
88 234 3
88 236 2
88 237 5
88 259 3
88 264 8
88 270 6
88 272 1
88 275 4
88 278 6
88 285 5
88 286 10
88 288 8
88 289 2
88 293 5
89 91 2
89 93 3
89 97 10
89 104 6
89 113 7
89 114 4
89 120 7
89 129 1
89 130 5
89 135 3
89 137 8
89 160 9
89 161 7
89 162 10
89 163 4
89 164 9
89 165 2
89 171 8
89 175 5
89 178 9
89 181 2
89 199 8
89 202 6
89 203 7
89 205 3
89 206 5
89 213 3
89 217 1
89 218 6
89 220 3
89 221 2
89 228 7
89 236 10
89 238 10
89 246 4
89 249 10
89 251 1
89 257 6
89 259 10
89 260 4
89 276 5
89 289 10
89 291 8
89 292 9
90 93 4
90 96 2
90 99 2
90 104 3
90 110 9
90 112 4
90 130 4
90 135 2
90 136 4
90 140 4
90 147 10
90 153 6
90 157 2
90 163 6
90 166 2
90 180 6
90 182 4
90 184 2
90 195 2
90 201 4
90 202 2
90 204 4
90 210 4
90 221 4
90 231 6
90 234 4
90 236 5
90 243 9
90 252 7
90 279 9
90 283 6
90 284 8
90 287 3
90 290 9
90 299 4
91 93 10
91 96 8
91 99 4
91 101 1
91 104 1
91 112 2
91 113 8
91 115 9
91 117 6
91 121 8
91 129 6
91 132 8
91 142 10
91 144 5
91 151 9
91 152 8
91 162 9
91 166 10
91 167 10
91 170 5
91 171 1
91 172 5
91 174 1
91 179 9
91 182 2
91 184 2
91 186 10
91 194 8
91 207 10
91 215 7
91 216 3
91 217 10
91 219 8
91 226 5
91 230 3
91 234 8
91 240 4
91 245 1
91 249 10
91 250 6
91 261 8
91 262 2
91 264 9
91 271 4
91 272 3
91 280 5
91 290 9
91 298 5
92 101 6
92 104 6
92 108 5
92 116 9
92 120 5
92 140 8
92 142 10
92 143 8
92 144 5
92 148 5
92 169 3
92 171 8
92 172 6
92 174 1
92 184 1
92 193 4
92 194 1
92 200 10
92 202 4
92 213 7
92 215 7
92 217 1
92 219 1
92 220 2
92 231 7
92 256 2
92 270 10
92 272 3
92 288 9
92 292 7
92 293 3
93 105 5
93 106 5
93 111 7
93 115 3
93 117 1
93 121 5
93 123 9
93 129 5
93 131 2
93 136 10
93 138 5
93 139 10
93 144 6
93 148 6
93 150 7
93 151 3
93 163 6
93 168 4
93 174 8
93 176 1
93 179 6
93 184 2
93 187 5
93 196 1
93 200 10
93 201 3
93 204 2
93 206 1
93 208 7
93 209 10
93 211 2
93 214 8
93 217 6
93 224 9
93 237 3
93 238 7
93 249 3
93 250 1
93 252 5
93 255 1
93 263 3
93 281 3
93 296 2
93 300 1
94 98 2
94 107 5
94 109 4
94 113 4
94 118 10
94 122 9
94 130 1
94 131 6
94 139 5
94 145 1
94 146 8
94 150 2
94 151 1
94 152 6
94 155 10
94 163 9
94 165 1
94 170 10
94 175 10
94 182 6
94 187 8
94 195 8
94 203 8
94 208 5
94 210 8
94 212 5
94 228 7
94 229 1
94 231 4
94 233 4
94 234 9
94 242 8
94 244 9
94 247 5
94 254 8
94 258 7
94 262 9
94 263 9
94 265 9
94 274 9
94 275 1
94 286 8
94 291 8
94 293 4
94 298 7
94 299 1
94 300 4
95 96 5
95 99 10
95 104 5
95 114 7
95 119 10
95 131 9
95 132 5
95 136 5
95 143 3
95 144 5
95 150 4
95 152 8
95 157 5
95 158 1
95 159 10
95 161 3
95 175 9
95 179 8
95 182 2
95 188 2
95 201 1
95 203 4
95 205 7
95 207 7
95 208 2
95 222 10
95 225 8
95 234 5
95 236 9
95 238 7
95 254 3
95 256 8
95 265 10
95 266 4
95 268 9
95 277 1
95 279 2
95 286 4
95 290 5
95 294 5
96 98 7
96 107 6
96 116 10
96 118 6
96 121 1
96 127 2
96 128 6
96 129 10
96 133 2
96 136 8
96 140 10
96 150 10
96 156 2
96 158 10
96 163 4
96 174 5
96 175 9
96 184 8
96 193 2
96 194 2
96 196 1
96 198 3
96 213 2
96 215 6
96 217 7
96 222 9
96 227 4
96 233 9
96 237 2
96 246 6
96 254 4
96 258 2
96 265 4
96 271 5
96 285 10
96 287 4
96 293 9
96 294 8
96 298 3
97 99 6
97 117 8
97 124 7
97 125 6
97 126 9
97 128 9
97 129 3
97 131 2
97 132 2
97 146 10
97 151 7
97 156 2
97 157 7
97 159 4
97 162 9
97 168 7
97 169 9
97 170 10
97 173 4
97 181 10
97 192 1
97 197 6
97 198 5
97 204 2
97 212 6
97 217 4
97 221 3
97 224 5
97 237 4
97 262 4
97 264 9
97 269 5
97 272 8
97 279 8
97 280 8
97 285 8
97 286 10
97 299 4
97 300 8
98 102 2
98 107 6
98 112 9
98 113 3
98 116 7
98 117 1
98 119 10
98 127 10
98 133 4
98 143 8
98 151 6
98 154 6
98 156 7
98 157 8
98 158 2
98 160 9
98 169 1
98 178 6
98 180 9
98 189 1
98 191 5
98 198 5
98 201 10
98 213 9
98 222 9
98 233 9
98 236 6
98 237 8
98 244 9
98 245 2
98 252 3
98 255 6
98 256 4
98 257 8
98 262 1
98 265 8
98 268 9
98 271 2
98 283 4
98 290 9
98 298 8
99 110 10
99 112 5
99 129 9
99 132 5
99 136 6
99 140 5
99 148 8
99 151 1
99 159 3
99 161 3
99 162 5
99 163 4
99 167 4
99 168 3
99 174 3
99 183 7
99 205 5
99 208 6
99 213 1
99 215 4
99 216 10
99 221 10
99 236 9
99 246 9
99 253 10
99 254 4
99 257 10
99 259 8
99 267 10
99 268 10
99 277 2
99 281 7
99 284 8
99 290 6
99 292 7
99 299 6
100 103 5
100 105 6
100 106 5
100 115 6
100 121 8
100 139 3
100 140 1
100 141 7
100 150 6
100 153 7
100 166 8
100 174 1
100 179 8
100 192 5
100 194 8
100 204 5
100 213 4
100 217 6
100 228 4
100 229 3
100 230 8
100 233 2
100 235 7
100 237 2
100 239 4
100 244 8
100 249 10
100 250 2
100 253 9
100 279 10
100 282 1
100 284 1
100 288 10
100 293 10
100 299 9
101 106 6
101 114 6
101 115 5
101 116 4
101 123 1
101 124 9
101 130 10
101 140 5
101 141 7
101 143 1
101 146 2
101 161 1
101 162 8
101 166 8
101 174 8
101 177 3
101 181 4
101 199 9
101 203 8
101 206 8
101 210 4
101 212 2
101 216 1
101 218 7
101 221 5
101 222 4
101 223 3
101 224 8
101 237 7
101 248 8
101 250 10
101 264 4
101 271 9
101 278 8
101 282 5
101 286 5
101 288 3
101 290 4
101 292 3
101 297 8
101 298 4
101 299 9
102 108 8
102 112 4
102 119 2
102 121 2
102 123 8
102 131 2
102 139 1
102 162 8
102 170 6
102 171 9
102 172 2
102 178 1
102 181 3
102 183 10
102 187 9
102 191 8
102 193 5
102 195 5
102 199 7
102 202 8
102 207 4
102 208 6
102 209 2
102 211 9
102 215 10
102 220 4
102 224 1
102 225 4
102 230 7
102 235 8
102 243 3
102 245 3
102 247 9
102 249 8
102 250 8
102 252 6
102 264 2
102 266 5
102 269 2
102 284 10
102 288 10
102 290 6
102 296 8
103 111 4
103 118 1
103 122 2
103 133 4
103 134 3
103 136 5
103 139 3
103 140 10
103 142 6
103 144 10
103 148 2
103 150 1
103 151 9
103 157 7
103 161 9
103 171 10
103 177 7
103 188 3
103 195 5
103 199 9
103 202 7
103 206 3
103 218 2
103 219 8
103 220 5
103 234 1
103 237 2
103 238 7
103 239 1
103 243 4
103 252 2
103 254 2
103 257 10
103 258 9
103 259 5
103 261 5
103 266 3
103 268 6
103 276 3
103 277 10
103 282 3
103 293 5
103 295 2
103 297 2
104 110 10
104 111 6
104 114 3
104 120 6
104 126 3
104 132 9
104 133 10
104 143 5
104 146 7
104 149 5
104 150 10
104 157 2
104 160 7
104 162 5
104 168 10
104 170 6
104 172 4
104 178 5
104 182 3
104 183 4
104 191 7
104 196 4
104 202 10
104 204 9
104 213 5
104 216 2
104 221 1
104 223 10
104 225 2
104 231 2
104 236 6
104 237 1
104 238 7
104 239 2
104 242 1
104 246 7
104 247 5
104 267 1
104 269 9
104 287 3
104 292 5
104 298 2
105 110 10
105 114 8
105 116 9
105 118 4
105 122 7
105 124 8
105 128 7
105 136 7
105 140 2
105 145 9
105 147 6
105 148 9
105 152 8
105 153 4
105 161 4
105 169 5
105 171 9
105 182 6
105 187 7
105 198 6
105 200 3
105 201 1
105 206 8
105 216 5
105 224 6
105 231 7
105 239 4
105 243 8
105 245 2
105 246 5
105 252 7
105 264 8
105 266 9
105 269 6
105 280 10
105 287 4
105 289 7
105 296 5
105 297 2
106 128 8
106 129 4
106 131 3
106 138 8
106 142 5
106 146 8
106 153 2
106 168 8
106 169 4
106 180 10
106 190 4
106 195 8
106 212 10
106 221 3
106 243 10
106 258 1
106 263 1
106 266 9
106 267 10
106 268 3
106 269 6
106 270 5
106 281 4
106 284 7
106 294 3
106 300 3
107 123 10
107 134 5
107 141 4
107 143 1
107 144 3
107 149 7
107 158 8
107 159 7
107 161 6
107 163 6
107 167 8
107 173 4
107 176 7
107 180 3
107 183 1
107 186 9
107 191 9
107 193 4
107 194 9
107 199 4
107 214 9
107 219 4
107 221 1
107 225 4
107 226 2
107 234 7
107 235 9
107 236 8
107 242 3
107 244 9
107 254 8
107 255 1
107 256 10
107 258 4
107 263 8
107 298 6
107 300 5
108 113 7
108 119 4
108 122 1
108 123 8
108 126 8
108 128 6
108 129 1
108 130 10
108 131 4
108 133 5
108 137 9
108 143 3
108 144 7
108 145 8
108 150 10
108 151 2
108 152 2
108 157 8
108 175 5
108 177 3
108 190 2
108 202 3
108 208 4
108 211 7
108 212 4
108 213 4
108 214 9
108 219 2
108 232 2
108 247 3
108 259 4
108 261 4
108 269 1
108 280 9
108 286 3
108 288 9
108 297 6
109 138 8
109 153 8
109 172 2
109 183 9
109 190 6
109 199 10
109 200 5
109 212 9
109 215 8
109 222 7
109 223 2
109 229 10
109 239 7
109 243 7
109 251 3
109 252 6
109 256 7
109 261 2
109 263 4
109 268 7
109 271 5
109 272 5
109 273 10
109 275 3
109 284 9
109 286 1
109 287 6
109 291 2
109 294 9
109 296 3
109 298 6
109 300 1
110 112 2
110 122 1
110 123 3
110 127 9
110 128 7
110 140 6
110 142 8
110 160 4
110 174 5
110 175 9
110 177 10
110 181 2
110 188 8
110 189 6
110 190 1
110 191 8
110 193 2
110 204 8
110 205 6
110 206 8
110 208 1
110 212 8
110 213 2
110 218 4
110 220 1
110 229 6
110 230 9
110 231 3
110 234 7
110 238 9
110 243 7
110 252 2
110 254 3
110 258 7
110 261 9
110 276 1
110 284 2
110 287 4
110 292 9
110 294 1
110 298 9
111 112 9
111 117 6
111 121 5
111 133 5
111 134 6
111 136 3
111 140 6
111 141 3
111 153 5
111 162 4
111 165 9
111 173 5
111 175 5
111 184 4
111 189 6
111 193 7
111 195 10
111 205 10
111 213 5
111 215 2
111 216 9
111 219 9
111 220 4
111 221 6
111 222 9
111 226 6
111 230 2
111 231 8
111 233 5
111 236 6
111 240 7
111 248 3
111 249 2
111 254 4
111 261 3
111 275 4
111 279 2
111 284 2
111 299 6
112 114 9
112 118 7
112 127 8
112 133 10
112 135 7
112 137 10
112 144 3
112 147 2
112 161 6
112 163 5
112 164 8
112 177 3
112 182 1
112 183 2
112 185 8
112 186 7
112 190 4
112 194 1
112 206 7
112 213 9
112 216 9
112 223 1
112 225 8
112 228 9
112 232 4
112 245 1
112 247 5
112 256 3
112 267 8
112 273 4
112 282 1
112 285 4
112 297 5
113 127 9
113 132 3
113 135 6
113 137 9
113 138 9
113 139 8
113 144 1
113 158 1
113 166 7
113 167 7
113 182 3
113 192 1
113 199 6
113 200 2
113 213 4
113 231 7
113 237 10
113 246 8
113 248 2
113 249 7
113 251 5
113 256 6
113 257 2
113 258 8
113 263 6
113 268 8
113 273 10
113 276 2
113 280 8
113 300 7
114 116 8
114 118 10
114 122 8
114 136 9
114 143 1
114 148 3
114 152 3
114 161 10
114 165 1
114 169 10
114 173 7
114 178 9
114 190 3
114 192 6
114 193 3
114 210 4
114 217 10
114 220 6
114 222 3
114 225 7
114 226 5
114 227 10
114 234 3
114 236 2
114 239 7
114 240 10
114 241 7
114 244 3
114 247 1
114 248 3
114 254 4
114 258 5
114 268 7
114 283 7
114 286 2
114 287 9
114 289 9
114 290 4
114 293 4
114 296 10
115 117 1
115 122 9
115 123 1
115 133 6
115 135 2
115 143 3
115 147 1
115 149 6
115 150 4
115 154 10
115 155 5
115 156 6
115 160 5
115 166 8
115 177 7
115 180 2
115 190 8
115 205 8
115 212 1
115 214 6
115 219 6
115 220 3
115 222 9
115 223 9
115 224 1
115 228 9
115 233 10
115 235 9
115 241 7
115 242 2
115 244 3
115 248 3
115 260 2
115 278 4
115 281 6
115 283 7
115 298 7
116 117 10
116 125 10
116 135 3
116 136 4
116 140 7
116 149 3
116 152 1
116 158 9
116 164 7
116 177 2
116 179 8
116 185 7
116 198 8
116 208 4
116 213 6
116 216 2
116 222 5
116 228 1
116 229 3
116 235 1
116 250 1
116 253 1
116 256 4
116 257 5
116 258 9
116 259 8
116 269 1
116 278 5
116 291 9
116 296 1
116 300 7
117 124 2
117 131 9
117 132 5
117 135 9
117 143 5
117 146 9
117 148 4
117 151 2
117 160 8
117 167 9
117 171 6
117 172 1
117 180 8
117 182 6
117 185 5
117 186 8
117 187 1
117 189 7
117 199 4
117 202 9
117 217 4
117 218 7
117 223 10
117 225 2
117 235 7
117 236 1
117 243 6
117 244 5
117 248 7
117 255 1
117 261 2
117 267 5
117 270 4
117 278 3
117 280 1
117 283 8
117 289 9
117 296 4
117 300 6
118 126 2
118 129 4
118 135 8
118 144 8
118 150 9
118 153 7
118 158 6
118 166 5
118 171 2
118 180 3
118 184 7
118 186 5
118 194 9
118 200 7
118 209 9
118 213 1
118 214 3
118 215 3
118 219 3
118 221 2
118 224 7
118 233 7
118 234 3
118 247 6
118 255 4
118 257 9
118 264 7
118 266 4
118 267 9
118 275 6
118 280 6
118 283 10
118 287 5
118 293 5
119 121 6
119 136 8
119 138 2
119 146 7
119 164 5
119 165 7
119 174 7
119 176 5
119 178 9
119 183 3
119 190 7
119 192 7
119 193 9
119 194 10
119 207 7
119 214 8
119 223 3
119 224 2
119 225 9
119 229 5
119 233 1
119 235 4
119 237 7
119 238 2
119 239 3
119 240 9
119 241 10
119 245 4
119 247 1
119 249 10
119 258 3
119 259 5
119 270 9
119 272 9
119 275 4
120 134 7
120 136 2
120 147 10
120 150 4
120 157 5
120 160 2
120 162 7
120 168 6
120 170 10
120 177 4
120 185 7
120 191 4
120 206 9
120 208 1
120 214 9
120 222 3
120 224 8
120 227 1
120 234 6
120 238 2
120 245 3
120 257 2
120 260 1
120 270 6
120 271 2
120 274 1
120 276 4
120 279 2
120 285 6
120 289 3
120 290 4
120 291 1
120 298 8
120 299 8
121 129 3
121 131 1
121 132 4
121 144 10
121 147 3
121 148 1
121 150 2
121 155 3
121 158 2
121 169 5
121 176 5
121 181 4
121 187 4
121 194 6
121 207 1
121 212 6
121 217 1
121 220 10
121 228 6
121 229 6
121 241 10
121 244 9
121 252 8
121 256 10
121 258 4
121 287 7
121 291 2
121 299 10
122 126 2
122 131 5
122 138 4
122 160 7
122 183 7
122 189 2
122 195 1
122 196 8
122 197 8
122 199 8
122 200 10
122 204 8
122 208 9
122 213 3
122 217 2
122 220 6
122 221 6
122 227 6
122 232 3
122 234 10
122 237 7
122 245 10
122 248 7
122 257 4
122 265 7
122 266 4
122 269 4
122 271 10
122 272 1
122 275 5
122 288 8
122 292 8
123 142 5
123 143 7
123 149 6
123 155 4
123 157 1
123 158 8
123 165 4
123 166 4
123 170 9
123 172 4
123 181 5
123 183 5
123 187 8
123 192 1
123 210 10
123 219 10
123 222 10
123 226 8
123 233 2
123 246 1
123 247 4
123 250 4
123 263 5
123 272 8
123 278 1
123 282 6
123 287 4
123 288 4
124 135 6
124 136 3
124 141 3
124 147 5
124 175 5
124 177 8
124 179 10
124 185 2
124 189 4
124 195 7
124 200 8
124 207 1
124 210 6
124 211 1
124 212 9
124 215 9
124 217 7
124 218 1
124 221 2
124 227 1
124 230 7
124 247 5
124 250 7
124 260 1
124 261 4
124 269 1
124 271 7
124 277 8
124 281 6
124 292 6
124 295 1
124 297 7
124 299 3
125 126 8
125 127 5
125 129 3
125 130 9
125 143 8
125 144 7
125 148 10
125 150 4
125 158 3
125 167 4
125 178 6
125 187 7
125 195 4
125 201 7
125 204 9
125 205 2
125 209 10
125 211 6
125 222 2
125 225 3
125 226 6
125 227 7
125 231 3
125 235 10
125 243 2
125 251 4
125 253 9
125 254 5
125 258 3
125 259 2
125 277 6
125 285 5
125 293 9
125 297 2
126 132 5
126 154 6
126 157 3
126 163 4
126 164 2
126 168 8
126 169 9
126 173 7
126 174 3
126 179 1
126 185 9
126 194 9
126 196 9
126 197 3
126 200 9
126 203 1
126 207 5
126 214 1
126 219 4
126 222 9
126 232 2
126 237 6
126 239 4
126 246 4
126 252 5
126 257 1
126 270 1
126 271 7
126 273 8
126 274 4
126 275 1
127 134 9
127 136 5
127 139 6
127 153 8
127 155 4
127 156 6
127 160 1
127 162 10
127 168 5
127 179 10
127 181 7
127 186 4
127 192 6
127 197 7
127 206 3
127 207 3
127 209 6
127 212 1
127 213 1
127 214 3
127 216 10
127 222 7
127 228 3
127 234 2
127 236 4
127 241 4
127 252 3
127 260 1
127 264 4
127 267 9
127 270 9
127 271 2
127 275 9
127 277 4
127 278 4
127 284 1
127 289 6
127 294 3
127 298 8
128 141 3
128 146 8
128 148 10
128 150 8
128 151 1
128 154 2
128 155 5
128 158 6
128 164 4
128 165 6
128 169 1
128 170 8
128 172 9
128 174 8
128 181 10
128 187 9
128 198 2
128 200 10
128 202 3
128 209 4
128 216 8
128 224 3
128 228 7
128 232 3
128 243 5
128 264 10
128 265 10
128 267 2
128 268 3
128 275 3
128 279 9
128 285 10
128 290 8
128 299 10
129 133 4
129 136 2
129 153 7
129 157 9
129 159 7
129 165 5
129 169 3
129 182 6
129 192 2
129 197 6
129 205 7
129 206 5
129 211 10
129 223 8
129 230 6
129 232 10
129 236 2
129 239 8
129 241 2
129 251 7
129 256 9
129 261 9
129 262 9
129 263 8
129 264 9
129 273 8
129 285 8
129 292 5
129 296 6
130 132 8
130 134 3
130 135 1
130 145 6
130 151 5
130 153 8
130 161 1
130 162 7
130 171 10
130 175 5
130 179 3
130 184 8
130 186 5
130 206 4
130 209 1
130 210 6
130 212 2
130 214 7
130 216 1
130 219 3
130 230 1
130 236 1
130 238 3
130 240 6
130 242 9
130 243 4
130 245 6
130 246 4
130 252 4
130 254 8
130 256 10
130 258 10
130 268 5
130 273 4
130 284 2
130 286 1
130 287 1
130 289 9
130 292 4
130 296 3
131 133 7
131 134 2
131 136 3
131 144 7
131 149 10
131 167 3
131 182 8
131 190 7
131 191 7
131 196 10
131 199 5
131 203 4
131 211 6
131 214 3
131 217 2
131 224 5
131 231 4
131 239 3
131 240 2
131 244 7
131 259 2
131 266 4
131 283 6
131 286 3
131 288 8
131 289 1
131 290 2
131 293 7
131 298 5
132 135 3
132 147 6
132 150 6
132 152 4
132 154 2
132 163 9
132 166 2
132 171 9
132 172 7
132 177 8
132 190 8
132 191 3
132 192 3
132 193 8
132 197 10
132 210 6
132 211 9
132 214 3
132 216 1
132 218 5
132 222 1
132 224 8
132 226 1
132 234 6
132 235 5
132 246 10
132 251 9
132 257 5
132 261 5
132 276 1
132 278 5
132 280 7
132 287 8
132 296 7
132 298 2
132 300 6
133 134 5
133 149 5
133 151 4
133 153 7
133 156 7
133 157 3
133 161 8
133 162 8
133 171 9
133 178 6
133 179 1
133 182 4
133 187 2
133 194 9
133 203 10
133 207 3
133 224 10
133 226 3
133 228 4
133 235 3
133 238 3
133 255 1
133 258 2
133 262 5
133 275 7
133 287 2
133 288 2
133 289 7
133 293 6
133 294 3
133 296 2
133 300 1
134 141 4
134 143 7
134 145 1
134 148 5
134 150 3
134 151 8
134 156 8
134 157 10
134 159 2
134 161 9
134 164 5
134 165 6
134 168 2
134 169 4
134 174 4
134 194 6
134 202 8
134 208 4
134 217 2
134 219 5
134 227 10
134 231 6
134 237 10
134 242 6
134 269 7
134 277 10
134 287 9
134 295 9
134 297 2
134 298 4
134 299 2
135 137 4
135 142 4
135 143 4
135 157 7
135 162 4
135 170 6
135 181 4
135 189 6
135 192 5
135 207 4
135 214 9
135 219 2
135 220 4
135 221 6
135 222 2
135 226 5
135 228 9
135 237 2
135 248 4
135 253 3
135 257 10
135 262 10
135 267 1
135 270 7
135 274 10
135 279 7
135 283 10
135 284 4
135 288 8
135 292 6
135 294 2
136 148 5
136 151 3
136 152 6
136 153 8
136 157 5
136 158 2
136 162 5
136 177 1
136 183 10
136 184 2
136 188 9
136 190 5
136 192 6
136 196 8
136 198 6
136 206 4
136 211 3
136 215 7
136 219 3
136 225 9
136 228 4
136 229 3
136 231 8
136 237 8
136 238 3
136 239 1
136 240 9
136 244 10
136 259 2
136 260 10
136 263 10
136 269 3
136 271 3
136 274 1
136 283 9
136 284 1
136 289 2
136 291 1
137 138 3
137 145 6
137 154 5
137 155 7
137 156 1
137 158 6
137 159 5
137 169 3
137 175 9
137 179 2
137 191 2
137 194 6
137 195 8
137 198 6
137 200 4
137 206 4
137 209 9
137 216 7
137 217 8
137 220 7
137 231 3
137 232 5
137 239 9
137 240 5
137 250 6
137 252 7
137 255 8
137 287 1
137 290 2
137 296 6
138 149 7
138 151 3
138 152 10
138 155 7
138 157 6
138 159 1
138 166 7
138 168 5
138 169 1
138 170 4
138 173 1
138 174 3
138 177 9
138 196 9
138 204 4
138 205 1
138 206 5
138 208 6
138 212 3
138 222 6
138 226 9
138 228 4
138 239 8
138 243 8
138 248 2
138 250 7
138 251 3
138 252 6
138 259 9
138 268 6
138 270 4
138 277 5
138 292 5
138 295 1
138 297 5
138 298 2
139 142 6
139 143 7
139 146 9
139 149 2
139 163 7
139 169 5
139 175 3
139 201 2
139 205 5
139 207 7
139 210 10
139 211 10
139 213 7
139 214 2
139 215 6
139 222 6
139 223 2
139 224 6
139 232 9
139 235 5
139 241 4
139 242 8
139 243 4
139 245 7
139 250 3
139 252 4
139 257 6
139 258 10
139 260 2
139 262 9
139 277 3
139 286 9
139 287 4
139 298 5
140 145 4
140 150 7
140 159 1
140 170 6
140 171 6
140 172 7
140 185 1
140 188 6
140 194 1
140 202 7
140 212 6
140 215 3
140 221 1
140 222 4
140 233 6
140 235 10
140 244 5
140 247 4
140 256 3
140 258 8
140 259 7
140 264 7
140 272 7
140 278 5
140 279 5
140 280 9
140 285 7
140 286 7
140 291 7
140 296 4
140 299 7
140 300 4
141 142 7
141 149 6
141 150 5
141 151 6
141 156 3
141 158 2
141 160 8
141 163 6
141 171 7
141 174 6
141 178 5
141 183 4
141 189 7
141 194 3
141 195 7
141 196 6
141 197 2
141 198 6
141 199 10
141 205 6
141 206 1
141 212 3
141 227 10
141 237 1
141 239 9
141 260 6
141 262 4
141 279 9
141 285 4
141 286 10
141 288 8
141 289 6
141 294 3
141 296 3
142 144 10
142 147 1
142 160 3
142 161 9
142 169 1
142 194 9
142 220 8
142 224 2
142 228 6
142 234 5
142 236 2
142 241 10
142 250 4
142 252 8
142 265 8
142 266 7
142 268 10
142 270 4
142 271 4
142 274 7
142 275 9
142 280 8
142 284 5
142 285 7
142 290 10
142 295 9
142 299 2
143 146 3
143 150 7
143 167 10
143 169 5
143 171 7
143 172 7
143 175 9
143 177 6
143 183 3
143 189 5
143 191 8
143 196 9
143 199 8
143 203 2
143 205 4
143 214 3
143 231 2
143 235 6
143 236 1
143 240 1
143 243 5
143 251 6
143 255 5
143 257 2
143 264 2
143 266 1
143 267 6
143 273 3
143 275 1
143 276 7
143 284 5
143 288 5
143 297 8
143 300 10
144 149 8
144 150 7
144 152 8
144 154 6
144 156 5
144 159 7
144 169 7
144 172 1
144 174 4
144 199 4
144 200 8
144 202 2
144 203 10
144 208 9
144 210 4
144 217 1
144 218 7
144 233 2
144 243 8
144 255 4
144 256 3
144 262 1
144 265 2
144 272 7
144 275 1
144 291 10
145 152 5
145 162 5
145 167 3
145 171 1
145 176 2
145 182 8
145 185 10
145 186 9
145 190 5
145 203 1
145 225 3
145 236 9
145 239 6
145 241 2
145 242 3
145 253 3
145 255 5
145 263 9
145 264 5
145 267 8
145 278 1
145 285 5
145 289 7
145 294 10
145 298 4
146 151 8
146 157 8
146 161 3
146 168 3
146 177 2
146 183 7
146 187 1
146 199 1
146 205 8
146 208 1
146 212 8
146 213 6
146 221 2
146 235 3
146 240 10
146 241 10
146 244 3
146 247 1
146 251 1
146 269 7
146 274 2
146 297 8
147 148 6
147 149 7
147 153 4
147 157 3
147 162 6
147 166 1
147 167 1
147 169 2
147 170 4
147 172 2
147 174 8
147 175 8
147 187 2
147 198 2
147 199 1
147 200 1
147 201 1
147 204 7
147 207 5
147 211 7
147 227 3
147 229 4
147 244 9
147 249 2
147 250 1
147 263 2
147 268 9
147 279 4
147 281 7
147 292 4
147 297 9
147 300 2
148 152 4
148 155 4
148 162 9
148 168 8
148 175 5
148 178 1
148 180 4
148 191 8
148 192 5
148 194 10
148 196 5
148 210 3
148 215 3
148 218 1
148 225 1
148 227 5
148 236 6
148 237 1
148 244 3
148 248 10
148 249 6
148 250 4
148 253 10
148 261 10
148 266 9
148 281 6
148 286 7
148 293 9
149 154 5
149 178 2
149 185 9
149 187 1
149 190 6
149 191 3
149 192 5
149 193 1
149 198 1
149 207 3
149 209 7
149 217 8
149 221 6
149 223 8
149 227 10
149 232 9
149 247 10
149 248 10
149 249 6
149 254 9
149 268 8
149 271 1
149 278 7
149 285 3
150 151 2
150 155 2
150 165 8
150 168 1
150 169 8
150 177 4
150 183 7
150 184 1
150 186 5
150 197 10
150 198 6
150 210 3
150 217 3
150 218 1
150 219 9
150 232 6
150 233 2
150 236 2
150 259 2
150 272 1
150 277 2
150 280 9
150 281 10
150 283 4
150 287 7
150 289 7
150 293 1
150 297 3
151 155 5
151 159 10
151 160 3
151 166 8
151 177 5
151 182 6
151 183 1
151 184 10
151 185 8
151 189 4
151 190 8
151 193 2
151 194 2
151 203 3
151 204 6
151 224 1
151 231 2
151 237 7
151 239 5
151 247 4
151 267 2
151 268 2
151 269 3
151 271 3
151 272 3
151 274 4
151 275 9
151 282 2
151 284 9
151 286 9
151 294 1
151 297 10
151 298 1
152 154 8
152 157 9
152 159 7
152 164 3
152 165 2
152 174 7
152 183 6
152 187 5
152 190 9
152 193 2
152 207 5
152 213 1
152 217 5
152 226 2
152 233 5
152 234 2
152 236 10
152 245 8
152 248 8
152 251 9
152 257 10
152 259 10
152 264 4
152 265 4
152 268 3
152 271 4
152 273 8
152 279 4
152 285 1
152 286 1
152 287 6
152 294 1
152 297 3
152 300 10
153 158 10
153 163 7
153 173 5
153 181 3
153 185 8
153 198 8
153 201 4
153 205 3
153 206 5
153 211 4
153 216 7
153 221 8
153 228 3
153 238 3
153 240 1
153 241 8
153 247 1
153 249 7
153 250 1
153 254 6
153 256 1
153 264 6
153 275 2
153 281 9
153 282 2
153 284 9
153 290 4
153 295 9
153 299 3
153 300 4
154 155 4
154 156 3
154 161 7
154 162 10
154 163 10
154 169 8
154 176 4
154 192 9
154 193 5
154 197 8
154 201 8
154 206 7
154 207 7
154 210 2
154 216 3
154 229 1
154 234 3
154 241 9
154 242 2
154 252 7
154 257 10
154 258 4
154 261 10
154 280 8
154 287 2
154 288 8
154 290 4
154 293 7
154 296 8
155 159 5
155 164 1
155 166 4
155 167 5
155 171 1
155 172 2
155 177 2
155 181 1
155 197 3
155 215 10
155 219 3
155 223 6
155 224 1
155 227 3
155 229 9
155 230 8
155 235 3
155 236 6
155 240 10
155 252 3
155 253 10
155 266 4
155 268 4
155 274 6
155 287 7
155 300 7
156 171 1
156 180 7
156 188 3
156 190 3
156 192 1
156 195 4
156 206 6
156 208 9
156 210 5
156 212 10
156 215 3
156 220 3
156 227 9
156 231 4
156 235 6
156 240 9
156 241 8
156 244 9
156 245 2
156 253 1
156 263 5
156 268 8
156 271 3
156 273 4
156 279 3
156 283 8
156 284 6
157 158 3
157 161 3
157 163 10
157 171 5
157 173 5
157 174 4
157 176 8
157 177 10
157 184 5
157 198 6
157 201 2
157 206 1
157 214 8
157 216 5
157 221 2
157 224 4
157 225 9
157 233 7
157 236 8
157 238 4
157 246 8
157 247 6
157 248 1
157 251 10
157 260 8
157 263 10
157 274 9
157 276 5
157 279 9
157 289 4
157 297 9
157 298 8
157 300 5
158 164 10
158 165 2
158 167 5
158 178 2
158 185 5
158 189 6
158 190 1
158 206 4
158 208 6
158 216 9
158 229 4
158 234 1
158 238 10
158 240 9
158 242 9
158 243 8
158 247 6
158 249 8
158 254 1
158 277 1
158 279 4
158 281 2
158 285 4
158 299 7
159 161 10
159 166 9
159 170 10
159 174 6
159 177 1
159 181 3
159 182 8
159 183 2
159 184 5
159 185 5
159 186 5
159 187 7
159 189 1
159 197 3
159 198 3
159 199 3
159 206 4
159 213 1
159 217 2
159 220 6
159 226 10
159 231 9
159 233 5
159 234 1
159 240 8
159 246 1
159 256 9
159 257 5
159 264 10
159 271 7
159 275 9
159 282 4
159 292 5
159 299 4
160 167 2
160 169 4
160 179 9
160 195 10
160 198 3
160 201 4
160 203 3
160 205 4
160 207 8
160 217 10
160 220 6
160 223 1
160 228 9
160 236 1
160 254 3
160 259 8
160 260 5
160 263 2
160 275 1
160 276 4
160 279 7
160 291 1
161 173 7
161 177 3
161 179 4
161 187 1
161 188 10
161 209 10
161 212 10
161 214 2
161 219 10
161 224 4
161 230 5
161 235 7
161 243 10
161 249 8
161 251 7
161 256 7
161 261 8
161 277 5
161 279 7
161 283 2
161 287 2
162 166 5
162 178 2
162 204 4
162 205 3
162 206 6
162 216 9
162 217 7
162 221 4
162 224 10
162 227 10
162 231 3
162 241 1
162 242 4
162 247 3
162 253 9
162 256 3
162 260 10
162 261 1
162 264 4
162 266 8
162 271 9
162 273 8
162 274 5
162 275 5
162 280 2
162 282 9
162 288 4
162 289 2
162 290 3
162 294 1
162 295 4
162 297 5
162 300 4
163 170 3
163 174 9
163 175 7
163 180 5
163 181 1
163 197 1
163 203 6
163 204 2
163 206 10
163 211 2
163 214 1
163 217 1
163 219 4
163 226 6
163 240 1
163 242 5
163 243 8
163 244 6
163 257 1
163 261 8
163 267 5
163 279 10
163 286 7
163 288 10
163 296 8
163 300 1
164 166 9
164 168 9
164 172 5
164 173 8
164 177 8
164 178 10
164 184 8
164 185 3
164 199 10
164 200 1
164 205 8
164 209 2
164 225 9
164 228 3
164 233 4
164 239 10
164 249 6
164 254 1
164 256 2
164 258 1
164 259 7
164 271 5
164 274 8
164 284 6
164 286 2
164 289 4
165 172 7
165 175 1
165 177 7
165 179 8
165 181 4
165 186 7
165 188 4
165 196 10
165 198 6
165 206 6
165 209 9
165 211 3
165 212 7
165 217 6
165 218 4
165 224 3
165 233 10
165 243 5
165 246 10
165 249 3
165 254 4
165 255 8
165 259 9
165 262 1
165 266 2
165 271 9
165 272 9
165 276 1
165 280 8
165 281 6
165 285 9
165 294 6
166 167 2
166 168 9
166 170 5
166 174 3
166 175 9
166 177 1
166 178 1
166 181 8
166 189 10
166 191 10
166 199 1
166 211 10
166 222 3
166 229 7
166 235 8
166 240 10
166 242 8
166 244 1
166 246 3
166 250 5
166 251 8
166 254 6
166 258 10
166 259 5
166 260 3
166 262 8
166 269 7
166 272 6
166 281 6
166 284 8
166 285 1
166 288 5
166 293 4
166 295 6
166 300 6
167 169 4
167 170 9
167 175 1
167 176 2
167 181 2
167 188 7
167 194 3
167 195 3
167 207 2
167 210 8
167 216 9
167 221 2
167 225 1
167 248 5
167 259 2
167 269 4
167 270 8
167 271 5
167 286 7
167 288 7
167 290 1
167 291 8
167 293 3
167 300 9
168 176 7
168 187 2
168 196 8
168 198 1
168 203 2
168 212 7
168 232 8
168 233 10
168 236 4
168 262 8
168 266 4
168 270 8
168 273 1
168 276 4
168 283 7
168 285 6
168 289 9
169 170 9
169 176 9
169 179 1
169 184 5
169 185 9
169 194 3
169 195 5
169 220 1
169 232 4
169 233 5
169 238 10
169 239 7
169 240 8
169 243 3
169 249 6
169 251 8
169 253 10
169 266 7
169 269 5
169 279 1
169 282 8
169 287 2
169 293 6
169 300 4
170 174 7
170 175 10
170 176 1
170 178 4
170 179 5
170 184 10
170 186 3
170 187 3
170 197 1
170 199 7
170 215 10
170 219 1
170 220 4
170 239 1
170 245 5
170 258 6
170 260 6
170 263 6
170 266 6
170 272 8
170 277 10
170 284 7
170 286 4
170 292 1
171 174 3
171 181 5
171 184 4
171 202 1
171 204 10
171 208 10
171 211 7
171 213 2
171 214 8
171 216 7
171 226 5
171 233 5
171 237 8
171 239 10
171 245 9
171 249 5
171 253 6
171 254 5
171 255 1
171 257 2
171 260 8
171 263 4
171 265 4
171 269 2
171 274 9
171 279 10
171 282 8
171 285 2
171 292 9
171 295 7
171 296 2
171 297 6
171 300 10
172 189 3
172 199 4
172 200 7
172 201 2
172 203 6
172 208 6
172 211 7
172 217 9
172 229 4
172 231 2
172 244 4
172 248 3
172 250 9
172 263 8
172 264 2
172 271 2
172 273 4
172 275 6
172 281 8
172 282 10
172 284 7
172 289 8
172 298 9
172 299 1
173 179 9
173 181 1
173 185 1
173 194 1
173 196 7
173 203 8
173 209 5
173 211 9
173 214 10
173 217 1
173 227 9
173 235 1
173 249 3
173 252 2
173 253 5
173 254 2
173 255 7
173 258 5
173 269 1
173 280 4
173 282 2
173 289 9
173 290 2
173 292 8
173 293 4
173 295 3
174 177 8
174 188 8
174 189 8
174 193 5
174 195 5
174 217 3
174 222 4
174 225 8
174 226 10
174 235 10
174 238 5
174 239 4
174 240 1
174 241 4
174 251 9
174 253 2
174 257 10
174 259 6
174 271 10
174 281 7
174 282 7
174 283 10
174 289 2
174 299 2
175 178 9
175 182 9
175 189 7
175 194 4
175 203 6
175 206 7
175 214 4
175 219 2
175 222 6
175 223 3
175 229 2
175 232 1
175 246 2
175 249 6
175 250 5
175 259 10
175 266 10
175 268 1
175 275 4
175 279 6
175 281 6
175 283 10
175 289 10
175 293 3
175 294 6
175 298 9
176 183 1
176 190 7
176 198 10
176 199 8
176 204 2
176 205 7
176 214 1
176 216 6
176 229 8
176 232 5
176 236 2
176 237 4
176 250 10
176 261 2
176 270 1
176 275 3
176 281 2
176 286 5
176 287 10
176 300 1
177 184 4
177 190 3
177 192 5
177 207 2
177 210 2
177 213 6
177 215 9
177 232 8
177 240 7
177 243 7
177 244 3
177 246 1
177 248 9
177 251 5
177 258 7
177 261 3
177 270 8
177 275 8
177 277 5
177 286 8
177 296 5
177 297 7
177 300 10
178 183 8
178 205 6
178 211 6
178 221 6
178 222 9
178 224 8
178 241 2
178 242 9
178 246 10
178 249 3
178 250 6
178 251 4
178 279 2
178 280 2
178 286 8
178 287 2
178 297 7
179 181 4
179 183 10
179 188 7
179 189 5
179 205 7
179 208 8
179 209 7
179 210 7
179 220 4
179 221 10
179 227 7
179 234 1
179 238 9
179 258 3
179 271 8
179 274 2
179 277 4
179 283 2
179 284 6
179 287 6
179 289 1
180 182 3
180 184 4
180 186 2
180 187 5
180 201 3
180 202 7
180 203 8
180 217 10
180 225 9
180 227 5
180 232 8
180 235 6
180 241 9
180 245 4
180 249 7
180 258 5
180 262 2
180 263 1
180 268 9
180 269 3
180 270 7
180 272 6
180 273 4
180 279 1
180 292 5
180 297 9
180 299 9
180 300 5
181 183 4
181 189 4
181 195 8
181 207 5
181 209 3
181 210 9
181 214 9
181 228 4
181 232 4
181 241 2
181 242 7
181 251 4
181 252 7
181 253 8
181 255 9
181 259 9
181 262 6
181 264 6
181 284 2
181 289 5
181 290 8
181 294 9
181 298 7
182 183 5
182 187 9
182 190 8
182 198 4
182 202 6
182 203 5
182 208 1
182 215 1
182 217 9
182 218 10
182 228 1
182 234 7
182 252 8
182 254 10
182 256 9
182 262 2
182 267 10
182 281 3
182 282 2
182 288 8
182 290 4
182 291 3
182 295 2
182 296 4
183 184 4
183 189 1
183 195 8
183 200 10
183 202 10
183 204 8
183 208 2
183 214 8
183 217 3
183 221 4
183 231 5
183 232 3
183 235 7
183 261 1
183 262 6
183 271 8
183 273 7
183 277 5
183 283 3
183 299 5
184 189 8
184 197 4
184 199 2
184 208 7
184 213 5
184 216 2
184 219 4
184 224 1
184 227 6
184 230 4
184 236 8
184 241 8
184 258 7
184 268 4
184 269 3
184 271 10
184 278 3
185 191 10
185 197 3
185 200 7
185 202 7
185 206 1
185 211 2
185 212 7
185 226 6
185 230 3
185 233 2
185 241 8
185 244 8
185 248 10
185 250 5
185 255 7
185 258 1
185 262 5
185 270 2
185 273 9
185 276 6
185 280 1
185 281 2
185 283 9
185 290 2
185 294 1
185 298 6
186 189 1
186 190 4
186 193 3
186 197 2
186 211 6
186 213 7
186 222 5
186 228 4
186 232 1
186 234 7
186 237 4
186 246 8
186 250 6
186 255 9
186 261 6
186 262 7
186 263 4
186 274 8
186 278 6
186 286 5
186 292 4
186 299 8
187 192 9
187 197 7
187 201 8
187 202 2
187 204 2
187 211 8
187 216 10
187 217 9
187 219 6
187 221 10
187 231 7
187 237 6
187 240 6
187 245 5
187 248 3
187 254 7
187 257 6
187 263 7
187 273 10
187 274 3
187 280 1
187 293 6
188 189 6
188 192 7
188 194 2
188 195 8
188 204 5
188 213 5
188 214 8
188 220 3
188 239 3
188 242 3
188 244 8
188 246 7
188 247 2
188 250 1
188 260 4
188 272 9
188 278 8
188 279 7
188 283 6
188 285 4
188 286 7
188 287 4
188 291 2
188 292 8
189 203 7
189 208 3
189 212 4
189 215 1
189 222 6
189 229 6
189 230 4
189 236 10
189 237 2
189 240 7
189 244 4
189 247 3
189 250 5
189 251 9
189 255 8
189 258 2
189 259 9
189 267 8
189 272 10
189 273 1
189 275 9
189 277 8
189 278 6
189 280 5
189 281 8
189 289 6
189 292 5
189 295 10
189 296 6
190 196 3
190 206 7
190 209 2
190 213 6
190 215 6
190 217 7
190 218 1
190 225 6
190 226 8
190 237 2
190 244 6
190 249 2
190 253 6
190 270 10
190 275 4
190 277 9
190 279 7
190 281 2
190 285 3
190 288 2
190 292 4
191 194 8
191 196 3
191 199 8
191 203 9
191 204 6
191 206 5
191 212 6
191 220 5
191 221 1
191 224 7
191 225 6
191 226 7
191 230 7
191 231 1
191 241 6
191 249 8
191 251 7
191 252 1
191 254 1
191 261 6
191 265 6
191 268 10
191 271 10
191 274 8
191 277 6
191 283 2
191 284 8
191 287 3
191 295 2
191 296 5
191 297 6
191 300 7
192 201 6
192 205 7
192 208 2
192 212 6
192 218 10
192 222 9
192 229 8
192 236 9
192 237 2
192 246 10
192 248 3
192 249 10
192 255 9
192 256 6
192 261 5
192 263 5
192 265 5
192 267 4
192 269 3
192 275 3
192 285 7
192 292 9
192 293 6
192 295 5
193 194 2
193 198 5
193 206 5
193 214 1
193 219 6
193 223 10
193 227 4
193 244 7
193 256 10
193 257 9
193 266 7
193 267 9
193 273 6
193 287 9
193 290 9
194 199 1
194 201 4
194 209 5
194 211 9
194 213 3
194 214 7
194 217 10
194 222 3
194 224 8
194 225 5
194 229 5
194 235 8
194 236 10
194 241 5
194 243 9
194 244 8
194 250 10
194 256 4
194 265 2
194 274 10
194 276 9
194 281 1
194 290 5
195 202 3
195 203 3
195 213 8
195 218 3
195 222 10
195 223 4
195 228 6
195 247 10
195 250 10
195 254 4
195 256 5
195 258 5
195 272 6
195 277 3
195 292 1
196 197 7
196 201 1
196 210 8
196 215 9
196 216 8
196 217 9
196 219 4
196 222 5
196 227 2
196 229 1
196 232 6
196 244 8
196 245 6
196 247 10
196 248 6
196 252 10
196 262 2
196 267 6
196 268 8
196 274 5
196 281 7
196 288 2
196 291 3
196 297 7
197 200 9
197 205 9
197 210 5
197 213 8
197 216 5
197 217 1
197 227 2
197 228 2
197 230 7
197 237 1
197 240 4
197 250 4
197 257 8
197 259 7
197 264 5
197 266 10
197 269 5
197 274 7
197 275 3
197 279 9
197 287 4
197 288 6
197 293 3
197 294 1
197 295 7
198 207 2
198 209 10
198 216 5
198 218 9
198 222 4
198 225 6
198 230 1
198 233 1
198 238 6
198 243 3
198 251 8
198 257 10
198 272 1
198 280 2
198 285 5
198 286 3
198 287 8
198 289 2
199 204 7
199 206 6
199 207 5
199 209 10
199 210 4
199 212 4
199 215 2
199 218 3
199 219 3
199 221 8
199 226 8
199 230 8
199 234 6
199 238 10
199 239 7
199 240 5
199 244 7
199 247 1
199 250 7
199 251 8
199 253 4
199 255 1
199 256 1
199 257 5
199 259 10
199 264 5
199 266 10
199 271 9
199 275 6
199 278 4
199 282 10
199 284 1
199 285 6
199 291 10
199 296 5
199 299 8
200 205 4
200 209 7
200 226 3
200 227 4
200 228 4
200 231 2
200 235 2
200 236 3
200 240 7
200 245 2
200 249 4
200 252 6
200 253 6
200 260 1
200 266 10
200 269 8
200 270 4
200 274 6
200 276 8
200 277 10
200 281 2
200 282 6
200 283 4
200 288 7
200 292 7
200 298 7
201 204 8
201 205 5
201 207 10
201 215 1
201 217 7
201 225 8
201 234 2
201 247 3
201 253 8
201 254 6
201 256 6
201 257 2
201 265 3
201 267 2
201 270 1
201 274 5
201 275 1
201 277 5
201 279 1
201 283 4
201 285 9
201 292 4
201 300 2
202 203 2
202 209 9
202 215 5
202 216 1
202 219 3
202 221 4
202 226 6
202 228 1
202 235 1
202 238 8
202 240 2
202 242 6
202 245 7
202 248 6
202 249 9
202 267 7
202 275 1
202 280 3
202 284 7
202 293 8
203 206 6
203 214 8
203 224 1
203 225 10
203 230 4
203 231 10
203 232 3
203 239 6
203 246 10
203 257 9
203 261 5
203 263 5
203 276 6
203 278 8
203 285 5
203 287 10
203 291 3
203 297 6
204 205 2
204 208 9
204 209 1
204 210 10
204 220 8
204 223 3
204 243 9
204 251 3
204 253 4
204 261 3
204 264 10
204 265 1
204 292 4
204 294 5
205 211 10
205 212 1
205 219 2
205 220 2
205 221 7
205 233 10
205 250 8
205 257 4
205 260 1
205 265 5
205 266 3
205 270 5
205 272 7
205 276 3
205 281 9
205 285 9
205 288 1
205 295 9
205 296 5
206 208 3
206 209 4
206 210 7
206 212 4
206 215 4
206 218 10
206 224 9
206 227 10
206 228 7
206 232 3
206 237 8
206 239 10
206 240 2
206 245 3
206 246 5
206 251 4
206 268 6
206 269 4
206 272 2
206 277 6
206 280 9
206 281 2
206 290 10
207 210 2
207 216 4
207 220 5
207 225 2
207 240 2
207 243 7
207 256 5
207 263 7
207 264 5
207 269 4
207 280 7
207 286 2
207 292 10
207 295 9
207 298 5
208 209 5
208 213 7
208 214 6
208 215 9
208 217 10
208 231 3
208 232 1
208 237 4
208 239 2
208 248 4
208 255 8
208 256 9
208 257 1
208 260 9
208 265 6
208 269 10
208 274 10
208 280 5
208 281 3
208 282 6
208 290 8
208 292 10
208 296 8
209 216 5
209 218 9
209 230 1
209 235 8
209 236 7
209 237 3
209 243 5
209 244 4
209 246 3
209 257 8
209 258 3
209 259 7
209 268 8
209 270 9
209 273 2
209 274 3
209 279 10
209 283 8
209 293 10
209 295 5
210 214 6
210 221 1
210 228 1
210 230 4
210 236 3
210 237 10
210 239 1
210 241 8
210 243 7
210 244 5
210 246 1
210 247 2
210 249 5
210 259 5
210 263 9
210 274 1
210 275 4
210 282 7
210 287 1
210 288 6
210 291 6
210 294 9
210 297 10
210 299 7
211 223 1
211 227 3
211 229 1
211 233 1
211 234 2
211 237 9
211 242 5
211 260 8
211 262 5
211 265 2
211 271 6
211 281 4
211 289 5
211 298 4
211 299 5
212 213 9
212 231 9
212 237 9
212 256 7
212 262 8
212 263 8
212 266 7
212 269 4
212 280 3
212 281 9
212 288 1
212 294 5
212 296 4
212 298 10
213 217 1
213 221 10
213 223 2
213 237 8
213 243 6
213 268 10
213 269 2
213 272 10
213 274 7
213 278 6
213 285 3
213 287 7
213 296 1
213 299 6
214 216 5
214 221 2
214 224 7
214 226 9
214 234 9
214 241 8
214 242 2
214 250 3
214 262 9
214 269 1
214 270 4
214 274 9
214 277 1
214 279 10
214 283 4
214 284 7
214 293 7
214 300 3
215 220 3
215 230 4
215 232 10
215 242 9
215 247 5
215 248 6
215 255 3
215 265 4
215 274 5
215 277 10
215 279 6
216 217 10
216 218 5
216 225 7
216 231 4
216 232 8
216 234 6
216 235 8
216 239 4
216 242 6
216 244 8
216 247 5
216 253 8
216 256 10
216 263 9
216 275 10
216 283 8
216 290 9
216 291 10
216 294 5
216 297 7
216 299 6
216 300 10
217 218 2
217 219 10
217 224 10
217 226 2
217 231 10
217 233 5
217 246 2
217 248 7
217 249 10
217 261 9
217 262 8
217 264 10
217 278 3
217 281 4
218 221 1
218 228 8
218 242 10
218 251 6
218 254 1
218 257 1
218 258 9
218 271 7
218 276 9
218 277 6
218 281 3
218 283 2
218 285 4
218 288 4
218 289 10
218 294 6
218 295 4
218 296 7
218 297 7
218 298 9
219 222 9
219 225 3
219 246 2
219 251 3
219 253 5
219 256 10
219 259 2
219 260 7
219 265 5
219 278 2
219 283 9
220 221 5
220 240 7
220 245 4
220 246 3
220 247 4
220 254 9
220 258 4
220 266 3
220 267 9
220 270 9
220 280 2
220 282 2
220 294 7
220 296 9
220 300 5
221 228 7
221 231 2
221 234 3
221 235 9
221 242 10
221 245 2
221 247 4
221 272 5
221 273 9
221 279 3
221 282 7
221 288 8
222 225 3
222 240 10
222 249 8
222 255 10
222 258 10
222 265 4
222 272 8
222 273 3
222 274 5
222 277 9
222 280 8
222 288 6
222 289 6
222 290 7
222 295 10
223 224 10
223 232 9
223 256 5
223 260 5
223 261 4
223 267 6
223 272 7
223 275 3
223 280 2
223 282 2
223 283 4
223 289 3
223 296 1
224 232 10
224 234 5
224 235 3
224 237 6
224 238 5
224 242 10
224 244 4
224 249 1
224 252 10
224 256 1
224 258 9
224 262 6
224 263 9
224 271 4
224 272 9
224 280 3
224 286 2
224 297 10
224 299 7
225 228 5
225 231 4
225 243 4
225 245 9
225 246 1
225 248 6
225 252 6
225 261 3
225 265 9
225 281 5
225 282 4
225 284 5
225 287 10
225 293 6
225 296 7
225 297 8
226 231 3
226 235 1
226 242 10
226 243 4
226 245 9
226 247 8
226 251 6
226 255 6
226 257 7
226 289 8
226 294 6
226 295 9
226 299 5
227 231 5
227 238 6
227 240 10
227 243 7
227 245 6
227 249 9
227 250 9
227 256 9
227 258 7
227 263 8
227 278 4
227 280 1
227 283 5
227 284 5
227 287 8
227 295 5
227 297 5
228 244 1
228 246 9
228 259 7
228 261 1
228 262 2
228 270 9
228 276 8
228 279 6
228 287 9
228 288 7
228 293 8
229 239 9
229 243 8
229 251 1
229 256 4
229 259 5
229 260 8
229 261 10
229 264 5
229 265 7
229 268 10
229 286 3
229 292 3
230 240 4
230 241 4
230 249 4
230 254 7
230 256 2
230 259 9
230 262 3
230 267 2
230 268 2
230 269 5
230 270 8
230 273 7
230 275 6
230 290 7
230 293 5
230 294 5
230 295 9
230 299 10
231 248 5
231 256 8
231 263 4
231 266 5
231 271 9
231 276 1
231 282 3
231 287 5
231 294 3
232 252 10
232 254 9
232 262 8
232 273 1
232 281 7
232 299 7
233 234 3
233 236 5
233 238 5
233 246 3
233 247 1
233 260 5
233 264 9
233 267 3
233 269 6
233 270 8
233 273 5
233 278 2
233 280 5
233 283 5
233 290 3
233 292 4
234 237 7
234 245 6
234 246 9
234 254 8
234 255 2
234 257 4
234 265 1
234 266 8
234 271 7
234 272 6
234 273 10
234 274 5
234 280 4
234 281 1
234 288 5
234 294 4
234 296 8
234 299 1
235 237 5
235 247 6
235 253 8
235 256 8
235 258 8
235 269 9
235 272 1
235 273 10
235 279 1
235 284 4
235 288 8
235 290 2
235 295 10
236 237 1
236 238 10
236 239 6
236 244 6
236 247 4
236 249 8
236 251 2
236 252 3
236 253 10
236 255 5
236 256 2
236 257 7
236 260 5
236 274 3
236 278 4
236 279 4
236 281 5
236 285 9
236 287 1
236 292 8
236 294 9
236 298 5
237 242 9
237 243 3
237 248 2
237 252 6
237 254 2
237 255 1
237 256 6
237 259 4
237 261 1
237 267 4
237 271 10
237 276 3
237 278 4
237 283 3
237 284 3
237 287 4
237 288 10
237 290 10
237 296 10
238 239 1
238 246 7
238 248 9
238 271 6
238 275 4
238 278 8
238 280 3
238 282 2
238 294 5
238 300 7
239 255 10
239 266 3
239 273 9
239 274 9
239 287 6
239 291 5
239 293 4
239 297 6
239 299 9
240 241 6
240 250 7
240 254 3
240 258 3
240 260 8
240 264 6
240 274 7
240 278 2
240 284 4
240 288 4
240 291 10
240 294 9
241 248 2
241 250 3
241 260 4
241 265 7
241 274 1
241 277 1
241 278 1
241 287 9
241 289 8
241 290 5
241 297 1
242 246 9
242 255 6
242 259 1
242 261 1
242 271 1
242 283 3
242 291 1
242 298 10
242 300 9
243 245 9
243 251 7
243 254 2
243 256 6
243 257 9
243 259 5
243 283 3
243 292 6
243 300 9
244 255 6
244 259 2
244 267 1
244 272 4
244 274 2
244 276 4
244 279 1
244 292 1
244 295 9
244 299 8
245 246 4
245 253 3
245 258 10
245 262 5
245 266 9
245 270 7
245 271 9
245 279 5
245 280 5
245 287 6
245 298 5
246 257 8
246 259 4
246 266 2
246 270 1
246 272 2
246 291 5
246 294 9
246 295 4
246 298 7
247 252 7
247 270 5
247 276 4
247 282 1
247 285 1
247 288 5
247 292 4
247 295 1
248 250 8
248 252 5
248 266 8
248 269 3
248 272 9
248 285 5
248 288 9
248 289 4
248 290 6
248 299 1
249 255 9
249 256 10
249 257 6
249 267 3
249 269 8
249 270 6
249 271 9
249 276 5
249 281 4
249 287 6
249 288 8
249 293 9
249 298 9
249 299 7
249 300 8
250 262 3
250 263 8
250 273 8
250 286 6
250 290 9
250 292 7
250 299 8
251 261 5
251 262 6
251 263 8
251 264 8
251 267 8
251 274 8
251 275 3
251 279 4
251 283 10
251 286 3
251 287 10
251 295 1
251 296 3
251 298 8
251 300 5
252 254 8
252 263 2
252 268 7
252 269 7
252 275 2
252 280 6
252 281 7
252 296 4
252 297 7
252 300 7
253 254 6
253 271 9
253 280 5
253 285 2
253 288 2
253 294 8
253 296 7
253 298 3
253 300 3
254 255 5
254 263 10
254 265 9
254 266 1
254 267 6
254 281 6
254 284 5
254 288 6
254 292 2
254 294 10
254 298 6
255 258 2
255 261 3
255 269 6
255 272 2
255 281 3
255 286 7
255 287 4
255 296 4
255 297 2
255 298 9
255 300 9
256 262 1
256 264 10
256 265 8
256 270 1
256 273 10
256 277 2
256 288 4
256 289 8
256 293 3
256 294 7
256 296 3
256 298 7
256 299 7
257 259 10
257 263 10
257 273 6
257 276 2
257 283 10
257 284 7
257 287 2
257 294 1
258 267 1
258 269 4
258 272 5
258 279 8
258 285 6
258 291 4
259 260 9
259 263 1
259 265 10
259 270 2
259 271 5
259 289 1
259 290 2
259 293 5
259 299 4
260 267 4
260 268 6
260 271 1
260 273 9
260 274 10
260 276 2
260 281 10
260 283 2
260 284 9
260 288 5
260 291 4
260 292 3
260 297 2
261 263 8
261 266 4
261 272 10
261 273 2
261 277 5
261 278 3
261 280 1
261 283 10
261 290 3
261 292 7
262 270 2
262 274 9
262 283 2
262 290 3
262 299 10
263 265 3
263 275 9
263 281 5
263 288 8
263 289 2
263 294 9
263 295 2
263 299 1
263 300 1
264 277 3
264 288 3
264 291 10
264 292 4
264 297 1
265 273 8
265 277 8
265 289 6
265 290 6
265 292 1
265 300 3
266 271 7
266 291 7
266 295 1
266 297 9
266 299 1
267 272 9
267 275 9
267 281 4
267 282 9
267 285 1
267 286 2
267 294 5
268 278 1
268 279 3
268 285 1
268 288 3
268 297 5
269 270 3
269 272 1
269 281 1
269 285 5
270 290 9
270 299 7
271 282 9
271 283 4
271 284 7
271 287 3
271 291 4
271 293 6
271 296 7
272 273 1
272 279 5
272 282 4
272 292 9
272 295 1
272 298 9
272 300 2
273 279 2
273 286 5
273 287 10
273 291 8
274 278 4
274 279 3
274 280 10
274 283 5
274 284 9
274 286 7
274 288 10
274 291 6
274 298 2
275 278 3
275 281 1
275 283 10
275 287 9
275 300 8
276 282 10
276 283 7
276 288 8
276 292 8
276 299 7
277 281 10
277 283 2
277 284 7
277 296 2
278 280 3
278 281 9
278 287 7
278 288 7
278 292 2
278 294 7
278 300 8
279 280 5
279 283 8
279 284 7
279 292 4
279 293 7
279 297 8
280 284 4
280 288 6
280 289 6
280 292 1
280 295 4
280 297 3
280 298 9
281 287 3
281 289 4
281 294 4
281 300 3
282 288 9
282 293 3
282 294 8
282 298 3
283 287 5
283 289 2
283 298 8
284 287 1
284 291 8
284 300 4
285 289 4
285 300 1
286 294 5
286 297 1
286 300 4
288 289 8
288 292 1
288 296 3
289 293 6
289 296 5
290 293 7
290 297 7
291 293 4
291 294 10
291 296 2
292 293 2
293 295 6
293 300 7
296 297 9
298 299 1
