300 22425 825
3
6
4
2
3
3
9
8
10
10
5
4
9
8
10
8
7
9
7
5
6
6
3
8
2
10
3
2
6
10
7
1
2
7
2
8
1
8
8
3
1
2
2
6
2
4
3
6
1
10
8
4
5
4
2
7
8
10
4
1
3
4
10
1
6
6
1
1
9
10
9
9
9
8
9
1
5
8
5
9
1
5
7
10
9
5
7
3
5
6
4
4
8
9
10
3
1
2
1
5
8
9
6
8
6
9
8
5
7
10
8
9
9
2
7
9
3
3
6
4
3
10
4
8
6
7
3
1
7
7
5
1
6
2
3
7
3
4
5
5
3
6
8
8
3
2
1
1
5
1
4
1
3
1
8
4
7
3
6
9
8
3
2
2
5
1
5
6
7
6
4
9
4
2
8
3
2
4
1
6
6
2
4
10
10
3
9
6
3
1
5
5
4
2
10
4
5
6
10
7
7
3
8
10
10
8
4
7
7
6
1
3
1
1
2
5
3
9
5
3
9
7
8
5
4
2
1
7
3
7
6
9
9
8
5
10
7
3
9
3
7
6
10
3
9
7
10
9
5
1
6
7
2
1
5
3
8
7
6
4
9
1
3
2
6
8
3
7
3
1
5
3
10
4
7
5
9
9
5
6
7
2
4
4
6
3
9
9
9
9
10
1
9
10
7
1
7
7
8
3
1 2 7
1 3 10
1 4 5
1 5 7
1 7 1
1 8 1
1 11 9
1 13 3
1 14 9
1 15 2
1 16 10
1 18 10
1 21 7
1 22 4
1 24 5
1 25 7
1 28 6
1 29 9
1 30 4
1 32 1
1 33 6
1 34 1
1 35 9
1 37 3
1 41 9
1 42 10
1 43 7
1 44 8
1 45 8
1 46 5
1 47 6
1 50 5
1 52 10
1 56 4
1 57 8
1 59 9
1 60 9
1 61 1
1 67 5
1 69 10
1 70 5
1 72 3
1 74 1
1 75 2
1 77 4
1 79 2
1 80 5
1 83 8
1 84 4
1 85 10
1 86 9
1 87 3
1 88 6
1 90 7
1 93 2
1 95 6
1 98 7
1 99 10
1 100 1
1 102 5
1 103 3
1 105 6
1 106 7
1 110 5
1 113 5
1 114 1
1 118 5
1 121 1
1 122 10
1 123 9
1 125 2
1 127 5
1 130 3
1 132 3
1 133 7
1 137 7
1 140 9
1 143 5
1 146 3
1 147 6
1 148 1
1 155 3
1 156 10
1 157 1
1 158 1
1 159 2
1 160 1
1 161 6
1 162 3
1 166 3
1 168 1
1 169 4
1 171 4
1 175 8
1 177 7
1 179 8
1 181 2
1 182 3
1 184 1
1 185 6
1 190 5
1 192 8
1 193 5
1 194 5
1 197 4
1 202 2
1 204 1
1 205 8
1 206 7
1 208 8
1 209 1
1 212 7
1 213 8
1 214 2
1 217 7
1 220 9
1 221 7
1 222 4
1 223 8
1 224 2
1 225 7
1 226 4
1 227 4
1 233 10
1 234 6
1 236 8
1 239 1
1 242 3
1 247 4
1 248 5
1 249 1
1 250 3
1 254 4
1 258 6
1 260 2
1 262 10
1 263 4
1 266 8
1 267 2
1 269 8
1 270 7
1 272 1
1 273 9
1 274 2
1 280 8
1 282 4
1 283 10
1 284 7
1 285 1
1 288 10
1 289 4
1 291 4
1 292 6
1 293 6
1 294 10
1 298 3
2 9 7
2 10 3
2 11 1
2 12 9
2 14 4
2 16 2
2 17 4
2 19 9
2 20 7
2 21 4
2 22 2
2 23 9
2 24 5
2 28 9
2 30 2
2 31 5
2 33 4
2 34 10
2 35 2
2 37 3
2 39 2
2 40 9
2 43 6
2 51 7
2 52 9
2 55 9
2 56 9
2 57 1
2 60 4
2 61 9
2 62 2
2 67 1
2 68 4
2 72 2
2 75 10
2 76 1
2 77 10
2 78 5
2 79 3
2 81 7
2 83 7
2 84 5
2 89 5
2 94 4
2 95 10
2 97 1
2 100 6
2 101 1
2 104 2
2 105 5
2 106 6
2 110 5
2 111 2
2 113 6
2 114 8
2 116 3
2 117 2
2 118 7
2 119 9
2 120 9
2 123 7
2 125 2
2 127 9
2 130 9
2 131 9
2 132 9
2 133 10
2 136 9
2 137 1
2 138 5
2 140 10
2 142 3
2 147 10
2 148 1
2 149 1
2 151 1
2 152 2
2 153 1
2 157 8
2 161 7
2 166 5
2 170 7
2 176 4
2 179 2
2 180 8
2 182 7
2 183 2
2 185 3
2 190 4
2 193 3
2 196 4
2 197 1
2 198 2
2 202 2
2 204 1
2 206 4
2 207 6
2 209 7
2 210 4
2 211 1
2 212 3
2 213 2
2 216 2
2 218 3
2 219 1
2 220 10
2 221 6
2 224 9
2 225 5
2 228 9
2 230 1
2 234 5
2 238 10
2 239 10
2 240 8
2 241 5
2 242 5
2 243 4
2 244 3
2 246 1
2 249 8
2 250 3
2 253 2
2 255 2
2 256 1
2 260 1
2 263 7
2 264 6
2 265 6
2 267 2
2 268 9
2 270 7
2 273 8
2 275 4
2 277 1
2 281 2
2 282 7
2 283 7
2 284 5
2 286 5
2 287 10
2 290 2
2 292 10
2 294 5
2 295 7
2 297 8
2 298 8
3 4 5
3 5 5
3 9 10
3 13 7
3 16 9
3 17 10
3 19 8
3 20 8
3 21 8
3 26 1
3 28 2
3 32 3
3 34 4
3 40 7
3 42 8
3 48 2
3 50 6
3 51 4
3 53 4
3 57 8
3 58 1
3 59 1
3 62 1
3 68 7
3 70 5
3 71 6
3 72 5
3 73 3
3 74 6
3 75 7
3 77 2
3 82 4
3 83 6
3 88 8
3 89 10
3 93 3
3 94 6
3 97 1
3 98 6
3 99 3
3 103 5
3 104 4
3 107 5
3 108 5
3 109 6
3 110 9
3 112 1
3 114 1
3 116 9
3 117 1
3 121 3
3 122 8
3 126 1
3 127 6
3 128 9
3 129 4
3 130 4
3 134 2
3 135 8
3 136 2
3 137 6
3 140 6
3 142 8
3 145 1
3 146 8
3 149 3
3 150 2
3 152 6
3 155 4
3 157 3
3 158 10
3 159 1
3 160 9
3 161 3
3 166 10
3 169 3
3 173 9
3 175 1
3 176 1
3 178 3
3 179 4
3 180 7
3 182 2
3 186 10
3 188 10
3 190 10
3 192 2
3 193 1
3 194 6
3 195 10
3 197 4
3 198 8
3 199 1
3 200 6
3 201 9
3 203 3
3 205 9
3 206 6
3 207 9
3 209 5
3 210 6
3 213 6
3 216 5
3 218 3
3 220 8
3 221 2
3 224 8
3 226 8
3 227 4
3 229 4
3 231 6
3 232 2
3 234 1
3 235 2
3 236 1
3 237 5
3 238 5
3 241 4
3 242 6
3 243 2
3 249 7
3 251 7
3 258 3
3 259 8
3 260 6
3 263 10
3 264 7
3 265 8
3 266 10
3 267 4
3 268 6
3 270 8
3 272 1
3 273 4
3 275 7
3 279 2
3 281 2
3 282 1
3 283 6
3 285 10
3 287 7
3 296 7
3 297 5
3 300 1
4 6 8
4 10 10
4 11 2
4 14 5
4 17 6
4 18 9
4 19 5
4 21 6
4 23 1
4 25 8
4 26 7
4 27 5
4 29 6
4 35 3
4 36 7
4 40 3
4 44 8
4 45 1
4 46 5
4 48 3
4 50 1
4 54 2
4 55 9
4 58 7
4 59 9
4 61 4
4 65 3
4 67 4
4 68 6
4 69 10
4 70 9
4 71 3
4 72 6
4 73 7
4 74 4
4 76 2
4 78 9
4 85 5
4 87 6
4 90 4
4 91 3
4 95 6
4 99 5
4 102 10
4 106 7
4 108 6
4 111 3
4 112 9
4 114 10
4 115 3
4 116 10
4 119 4
4 120 10
4 122 4
4 125 10
4 130 3
4 131 2
4 132 7
4 133 2
4 135 7
4 140 6
4 141 7
4 142 9
4 143 9
4 144 7
4 146 5
4 149 10
4 150 10
4 151 3
4 152 6
4 157 1
4 158 4
4 160 1
4 166 4
4 167 1
4 168 5
4 172 3
4 174 8
4 175 10
4 176 3
4 178 6
4 180 10
4 182 10
4 183 7
4 185 1
4 186 8
4 187 7
4 189 7
4 191 4
4 195 5
4 196 9
4 198 9
4 201 7
4 202 4
4 204 5
4 206 8
4 207 4
4 209 9
4 210 9
4 211 9
4 212 10
4 213 2
4 214 6
4 217 10
4 219 9
4 222 8
4 223 8
4 224 9
4 226 3
4 227 7
4 231 3
4 240 8
4 241 5
4 244 5
4 245 2
4 249 8
4 254 10
4 255 2
4 256 6
4 257 7
4 260 10
4 263 10
4 265 6
4 268 7
4 272 5
4 273 5
4 275 3
4 277 1
4 278 8
4 279 8
4 280 4
4 283 4
4 285 7
4 286 8
4 288 5
4 292 4
4 295 1
4 296 9
4 297 10
4 298 4
4 299 3
4 300 6
5 6 2
5 7 9
5 12 9
5 15 4
5 16 2
5 17 8
5 20 2
5 22 5
5 25 3
5 26 5
5 31 9
5 33 10
5 36 8
5 37 8
5 38 10
5 39 7
5 40 8
5 43 5
5 44 6
5 45 7
5 47 5
5 52 1
5 53 4
5 56 4
5 61 3
5 62 9
5 66 8
5 73 9
5 75 3
5 77 6
5 79 10
5 80 7
5 82 9
5 83 9
5 85 3
5 86 1
5 88 4
5 91 5
5 98 2
5 99 8
5 100 3
5 102 10
5 103 5
5 105 4
5 106 3
5 107 5
5 108 7
5 111 8
5 112 6
5 117 10
5 119 3
5 120 10
5 121 6
5 124 8
5 130 8
5 131 4
5 133 3
5 136 8
5 137 5
5 144 7
5 147 9
5 151 1
5 153 4
5 154 2
5 158 7
5 160 7
5 161 8
5 163 7
5 165 7
5 168 6
5 169 2
5 170 9
5 174 8
5 175 8
5 176 6
5 177 3
5 178 10
5 181 4
5 182 9
5 183 9
5 189 9
5 190 5
5 194 10
5 195 3
5 198 5
5 199 3
5 200 1
5 201 9
5 202 4
5 205 3
5 206 8
5 207 5
5 213 4
5 215 10
5 216 8
5 217 2
5 218 1
5 221 5
5 226 10
5 227 5
5 228 6
5 229 5
5 234 4
5 237 1
5 240 6
5 241 3
5 243 6
5 244 5
5 248 6
5 251 9
5 252 9
5 254 1
5 257 1
5 260 5
5 264 8
5 267 4
5 270 3
5 271 8
5 274 4
5 277 10
5 280 1
5 281 10
5 282 1
5 283 3
5 287 2
5 288 5
5 293 8
5 295 3
5 297 2
5 298 1
5 299 10
5 300 7
6 8 10
6 10 8
6 12 2
6 14 5
6 15 3
6 17 8
6 18 2
6 21 3
6 23 7
6 25 5
6 28 3
6 31 3
6 34 5
6 35 6
6 37 5
6 38 1
6 41 4
6 42 2
6 43 9
6 44 3
6 45 4
6 46 2
6 47 9
6 48 2
6 49 4
6 54 9
6 57 3
6 58 5
6 62 3
6 63 6
6 64 10
6 65 10
6 67 6
6 69 4
6 71 6
6 75 7
6 79 8
6 80 8
6 85 2
6 87 5
6 92 2
6 96 4
6 98 8
6 99 6
6 100 6
6 102 10
6 106 3
6 108 6
6 110 8
6 111 8
6 113 1
6 114 8
6 116 1
6 118 3
6 120 1
6 126 6
6 128 10
6 130 4
6 131 10
6 132 7
6 134 1
6 135 6
6 136 2
6 137 10
6 139 7
6 141 4
6 142 7
6 145 5
6 146 9
6 147 8
6 150 3
6 151 10
6 152 1
6 155 8
6 156 5
6 157 10
6 158 9
6 159 1
6 164 8
6 165 5
6 166 7
6 167 5
6 168 8
6 169 8
6 170 9
6 175 3
6 176 7
6 177 9
6 180 10
6 182 3
6 183 8
6 190 7
6 192 1
6 193 3
6 198 8
6 201 2
6 204 5
6 205 3
6 206 7
6 210 6
6 211 6
6 212 3
6 214 9
6 219 8
6 220 2
6 221 1
6 224 4
6 225 2
6 229 2
6 231 2
6 232 9
6 233 10
6 234 2
6 235 7
6 237 3
6 238 4
6 239 4
6 242 2
6 244 9
6 250 1
6 251 2
6 252 8
6 254 6
6 255 7
6 261 1
6 264 9
6 265 5
6 273 9
6 274 4
6 275 1
6 277 3
6 279 6
6 280 2
6 281 7
6 282 4
6 289 5
6 290 2
6 293 1
6 298 9
6 300 5
7 9 7
7 10 1
7 13 7
7 14 7
7 16 2
7 17 8
7 18 2
7 19 8
7 22 2
7 24 10
7 26 5
7 29 5
7 31 8
7 32 6
7 34 2
7 37 5
7 40 6
7 41 8
7 42 2
7 44 5
7 45 1
7 47 6
7 51 7
7 53 2
7 61 6
7 62 8
7 63 7
7 67 8
7 71 3
7 73 6
7 77 3
7 81 7
7 83 5
7 84 8
7 85 7
7 87 5
7 88 9
7 89 6
7 90 7
7 93 5
7 94 7
7 96 3
7 97 6
7 98 1
7 103 5
7 104 9
7 105 1
7 106 6
7 107 3
7 110 10
7 112 9
7 113 8
7 114 6
7 115 9
7 116 9
7 117 5
7 119 9
7 121 1
7 122 2
7 125 3
7 126 6
7 129 1
7 134 1
7 138 8
7 140 5
7 141 1
7 142 1
7 147 6
7 149 2
7 151 4
7 153 8
7 154 1
7 155 7
7 156 8
7 158 3
7 159 9
7 162 9
7 166 2
7 168 5
7 169 2
7 171 7
7 173 3
7 174 2
7 176 9
7 177 4
7 178 5
7 179 10
7 180 4
7 184 8
7 185 4
7 188 1
7 190 10
7 191 2
7 193 4
7 194 6
7 195 8
7 197 10
7 200 3
7 206 8
7 207 7
7 212 10
7 213 10
7 214 9
7 218 5
7 219 5
7 220 7
7 221 5
7 223 8
7 225 10
7 226 8
7 227 9
7 228 5
7 229 10
7 230 1
7 233 8
7 237 4
7 238 3
7 239 9
7 240 1
7 241 2
7 243 3
7 248 9
7 251 2
7 252 1
7 254 6
7 255 5
7 256 9
7 257 7
7 258 7
7 260 4
7 262 3
7 263 4
7 264 5
7 271 4
7 273 2
7 274 7
7 277 8
7 281 3
7 286 6
7 287 3
7 288 3
7 292 4
7 294 9
7 298 2
7 300 8
8 9 6
8 10 1
8 13 1
8 19 6
8 21 3
8 22 6
8 25 9
8 28 3
8 29 10
8 30 5
8 31 5
8 34 5
8 35 7
8 38 3
8 39 8
8 42 9
8 43 7
8 45 3
8 46 5
8 48 2
8 50 9
8 51 10
8 52 4
8 54 1
8 55 7
8 57 3
8 59 8
8 60 7
8 62 9
8 63 3
8 68 8
8 69 6
8 73 3
8 75 6
8 76 7
8 77 7
8 78 5
8 80 10
8 83 2
8 87 9
8 89 6
8 92 9
8 96 1
8 97 9
8 99 7
8 104 9
8 109 4
8 112 10
8 114 10
8 118 2
8 121 8
8 127 4
8 128 7
8 129 7
8 130 8
8 131 8
8 133 7
8 134 7
8 136 7
8 144 10
8 145 1
8 146 1
8 147 10
8 150 4
8 154 2
8 156 6
8 158 6
8 161 1
8 163 3
8 166 4
8 167 6
8 169 9
8 170 6
8 172 9
8 173 3
8 174 4
8 175 3
8 177 10
8 178 4
8 180 4
8 184 6
8 185 9
8 186 6
8 189 1
8 194 1
8 196 7
8 202 7
8 203 10
8 204 1
8 205 4
8 207 2
8 210 10
8 212 7
8 215 7
8 218 1
8 219 1
8 220 1
8 221 3
8 225 5
8 226 4
8 231 10
8 233 4
8 236 4
8 237 5
8 239 8
8 240 6
8 242 1
8 246 1
8 247 5
8 248 1
8 249 7
8 250 5
8 252 8
8 253 9
8 254 9
8 255 6
8 257 3
8 258 4
8 259 5
8 261 10
8 265 7
8 269 3
8 270 3
8 273 2
8 277 6
8 281 7
8 283 8
8 287 5
8 288 6
8 290 8
8 297 9
8 298 10
8 299 4
9 14 3
9 15 2
9 19 10
9 22 10
9 23 4
9 24 7
9 26 4
9 27 4
9 28 6
9 29 6
9 30 2
9 31 10
9 32 3
9 33 1
9 34 6
9 35 1
9 38 2
9 39 7
9 43 6
9 45 10
9 46 2
9 47 8
9 49 1
9 51 1
9 52 2
9 53 6
9 54 1
9 57 10
9 58 1
9 61 4
9 62 4
9 63 3
9 64 3
9 65 1
9 67 6
9 68 7
9 69 2
9 76 5
9 78 2
9 82 10
9 86 1
9 87 4
9 88 8
9 90 7
9 92 9
9 93 5
9 95 3
9 96 7
9 97 3
9 99 3
9 103 1
9 104 10
9 105 9
9 108 1
9 109 8
9 112 3
9 113 3
9 117 1
9 118 9
9 121 7
9 122 10
9 129 3
9 133 9
9 134 3
9 136 10
9 139 3
9 140 2
9 141 5
9 142 10
9 143 5
9 144 4
9 147 7
9 148 3
9 149 10
9 150 4
9 151 7
9 153 4
9 154 5
9 156 5
9 157 6
9 159 6
9 161 9
9 162 7
9 163 7
9 165 8
9 167 10
9 169 6
9 171 10
9 172 6
9 173 2
9 176 8
9 177 7
9 179 8
9 181 7
9 182 9
9 185 8
9 186 10
9 194 7
9 195 6
9 197 2
9 198 3
9 199 9
9 200 10
9 203 5
9 204 7
9 205 1
9 206 1
9 209 2
9 210 1
9 211 1
9 212 4
9 217 10
9 218 7
9 222 10
9 227 2
9 228 2
9 230 10
9 231 7
9 233 7
9 234 6
9 235 5
9 244 8
9 245 1
9 250 6
9 252 9
9 253 3
9 255 2
9 256 4
9 257 4
9 259 4
9 261 10
9 262 8
9 269 9
9 271 2
9 273 3
9 275 1
9 276 10
9 278 3
9 279 10
9 287 3
9 289 6
9 290 1
9 291 7
9 292 2
9 294 4
9 296 2
9 298 9
10 12 6
10 14 9
10 17 9
10 20 3
10 21 7
10 24 6
10 26 8
10 28 3
10 29 1
10 32 6
10 34 9
10 35 10
10 36 8
10 37 1
10 38 10
10 39 8
10 40 6
10 41 3
10 42 8
10 44 2
10 45 10
10 46 3
10 47 8
10 48 1
10 50 6
10 54 4
10 56 1
10 59 7
10 60 9
10 62 5
10 63 6
10 65 9
10 66 2
10 79 8
10 84 8
10 85 6
10 86 8
10 89 10
10 94 8
10 96 5
10 97 3
10 101 3
10 103 2
10 107 7
10 108 4
10 109 8
10 111 2
10 112 8
10 114 4
10 115 3
10 117 10
10 119 4
10 122 3
10 123 9
10 125 2
10 126 2
10 130 4
10 131 2
10 134 8
10 138 3
10 139 4
10 140 9
10 141 4
10 144 8
10 145 4
10 146 2
10 147 4
10 148 6
10 153 5
10 155 7
10 156 4
10 157 6
10 158 4
10 160 7
10 161 2
10 162 3
10 164 1
10 165 1
10 166 7
10 167 2
10 169 2
10 171 9
10 172 7
10 174 1
10 179 2
10 182 8
10 183 7
10 186 1
10 187 7
10 190 8
10 193 10
10 199 10
10 200 5
10 203 7
10 205 1
10 206 1
10 209 5
10 210 7
10 212 8
10 216 5
10 221 7
10 223 3
10 225 8
10 226 2
10 228 2
10 229 3
10 232 8
10 234 10
10 235 1
10 241 4
10 242 2
10 244 4
10 245 7
10 247 1
10 250 4
10 252 5
10 254 7
10 257 3
10 259 2
10 261 10
10 265 1
10 266 8
10 268 5
10 269 2
10 270 5
10 271 5
10 272 9
10 276 9
10 277 9
10 280 5
10 282 8
10 284 3
10 285 4
10 292 1
10 294 7
10 295 1
10 296 6
10 297 9
10 298 1
10 299 10
10 300 7
11 15 1
11 17 8
11 20 5
11 21 1
11 22 3
11 23 1
11 24 10
11 25 9
11 30 9
11 32 5
11 34 4
11 40 8
11 41 1
11 42 6
11 44 1
11 45 8
11 47 6
11 48 9
11 49 8
11 50 7
11 51 7
11 53 4
11 58 1
11 60 7
11 63 3
11 64 2
11 65 7
11 67 3
11 68 7
11 70 10
11 72 8
11 73 5
11 77 7
11 78 3
11 82 2
11 85 5
11 86 3
11 87 4
11 88 8
11 93 3
11 96 10
11 97 3
11 100 7
11 101 9
11 102 10
11 107 10
11 109 1
11 110 10
11 111 3
11 112 2
11 113 10
11 114 7
11 115 1
11 119 8
11 120 9
11 121 10
11 122 1
11 123 3
11 126 1
11 127 4
11 128 8
11 133 8
11 135 8
11 138 7
11 142 4
11 143 1
11 145 1
11 148 2
11 149 8
11 150 3
11 151 4
11 153 6
11 154 1
11 155 5
11 160 9
11 161 4
11 163 10
11 164 4
11 166 8
11 169 1
11 172 1
11 173 7
11 174 7
11 177 10
11 179 4
11 181 5
11 184 7
11 185 5
11 186 2
11 188 8
11 191 8
11 196 3
11 201 7
11 206 10
11 212 2
11 215 1
11 217 6
11 218 3
11 221 8
11 225 2
11 230 5
11 234 7
11 235 6
11 236 5
11 237 3
11 238 4
11 243 9
11 245 3
11 248 7
11 249 2
11 252 9
11 253 8
11 255 9
11 257 2
11 259 2
11 260 7
11 261 6
11 265 7
11 267 8
11 269 5
11 270 2
11 271 10
11 275 3
11 277 10
11 278 5
11 281 5
11 283 8
11 285 8
11 286 3
11 288 7
11 290 9
11 291 6
11 292 5
11 293 4
11 296 2
11 298 7
11 300 7
12 13 3
12 14 3
12 15 4
12 20 7
12 23 2
12 25 6
12 28 2
12 29 9
12 31 4
12 32 7
12 34 6
12 37 10
12 40 6
12 42 4
12 43 3
12 44 3
12 47 2
12 54 2
12 58 1
12 59 8
12 63 5
12 64 10
12 66 4
12 69 10
12 70 9
12 72 3
12 75 7
12 77 4
12 79 4
12 80 6
12 82 10
12 83 1
12 84 9
12 88 4
12 90 5
12 96 2
12 98 8
12 99 9
12 100 1
12 101 1
12 104 4
12 105 9
12 106 4
12 108 10
12 112 6
12 114 10
12 115 3
12 117 1
12 118 3
12 119 6
12 120 5
12 121 7
12 123 9
12 126 2
12 130 6
12 131 7
12 135 6
12 136 6
12 137 9
12 139 7
12 140 9
12 141 4
12 144 2
12 145 3
12 146 9
12 147 7
12 148 6
12 150 1
12 151 3
12 153 3
12 155 1
12 158 7
12 159 8
12 161 5
12 162 4
12 165 9
12 167 8
12 169 5
12 173 9
12 174 8
12 176 6
12 178 3
12 179 10
12 180 9
12 181 9
12 182 6
12 184 5
12 185 9
12 188 1
12 190 9
12 191 8
12 192 5
12 196 10
12 198 6
12 199 10
12 200 8
12 204 7
12 205 5
12 210 5
12 212 8
12 214 9
12 216 2
12 217 5
12 220 5
12 225 5
12 226 3
12 227 3
12 228 3
12 230 8
12 232 6
12 233 7
12 235 9
12 238 8
12 240 5
12 242 3
12 243 4
12 244 2
12 247 7
12 254 8
12 255 5
12 258 10
12 260 10
12 271 10
12 272 5
12 273 8
12 276 10
12 278 10
12 279 6
12 281 9
12 282 4
12 283 7
12 285 10
12 286 3
12 287 8
12 290 3
12 291 8
12 292 4
12 294 2
12 295 2
12 297 9
12 300 3
13 14 10
13 15 1
13 17 4
13 20 9
13 21 7
13 22 6
13 24 2
13 27 4
13 28 1
13 31 2
13 32 9
13 33 9
13 34 1
13 35 10
13 37 3
13 40 4
13 44 3
13 46 9
13 47 2
13 49 7
13 50 2
13 53 4
13 59 7
13 63 10
13 69 2
13 71 5
13 72 2
13 77 1
13 78 7
13 79 10
13 81 3
13 82 4
13 88 4
13 90 1
13 91 4
13 92 8
13 95 2
13 96 4
13 97 10
13 100 6
13 101 1
13 106 2
13 108 5
13 109 1
13 110 3
13 112 1
13 114 10
13 116 1
13 118 8
13 119 5
13 122 2
13 126 6
13 128 3
13 129 4
13 130 7
13 131 2
13 132 3
13 135 1
13 136 6
13 137 1
13 138 7
13 141 6
13 143 7
13 144 8
13 146 2
13 151 4
13 154 2
13 155 5
13 157 4
13 160 2
13 161 3
13 162 7
13 164 5
13 170 5
13 172 1
13 173 1
13 174 6
13 176 8
13 178 6
13 179 4
13 181 4
13 182 2
13 184 4
13 185 10
13 186 7
13 187 3
13 192 6
13 195 1
13 196 9
13 197 4
13 198 10
13 199 6
13 201 3
13 202 3
13 203 1
13 205 8
13 206 8
13 207 4
13 208 2
13 209 8
13 210 9
13 211 9
13 212 5
13 216 8
13 217 9
13 218 9
13 219 9
13 220 8
13 223 9
13 226 1
13 229 3
13 236 3
13 238 5
13 239 1
13 241 7
13 244 8
13 248 4
13 249 4
13 253 2
13 256 4
13 257 6
13 258 2
13 259 7
13 261 10
13 262 3
13 263 6
13 266 3
13 269 3
13 273 5
13 278 8
13 280 6
13 282 3
13 283 6
13 284 5
13 287 2
13 288 8
13 291 8
13 293 7
13 295 2
13 297 5
13 298 10
13 299 1
13 300 1
14 16 4
14 19 4
14 20 10
14 21 8
14 22 9
14 23 1
14 24 7
14 25 1
14 30 4
14 31 10
14 38 5
14 39 10
14 44 5
14 45 10
14 46 3
14 48 10
14 54 1
14 56 7
14 57 7
14 59 4
14 62 4
14 63 10
14 65 1
14 67 9
14 73 6
14 75 1
14 76 6
14 77 10
14 78 1
14 83 9
14 85 6
14 87 3
14 88 5
14 91 1
14 94 10
14 95 4
14 96 6
14 97 5
14 99 1
14 105 4
14 107 4
14 108 10
14 110 1
14 111 6
14 113 2
14 114 6
14 117 4
14 122 3
14 123 1
14 124 2
14 127 5
14 129 3
14 132 5
14 134 6
14 139 7
14 143 1
14 145 8
14 146 9
14 148 9
14 149 2
14 150 1
14 151 7
14 158 10
14 160 2
14 161 9
14 163 10
14 164 6
14 165 3
14 168 1
14 169 4
14 171 10
14 172 8
14 175 1
14 177 2
14 179 7
14 180 6
14 181 5
14 182 8
14 183 3
14 184 10
14 189 7
14 190 8
14 192 3
14 197 10
14 198 4
14 200 9
14 205 1
14 206 5
14 207 6
14 208 3
14 209 3
14 210 1
14 212 9
14 215 6
14 217 2
14 218 2
14 221 8
14 222 9
14 225 8
14 226 9
14 227 6
14 228 5
14 232 6
14 236 1
14 237 8
14 241 3
14 243 1
14 246 8
14 247 7
14 248 5
14 250 5
14 251 1
14 253 4
14 254 10
14 256 9
14 257 1
14 264 5
14 265 5
14 266 4
14 273 1
14 274 8
14 275 5
14 276 4
14 278 2
14 280 6
14 281 1
14 283 5
14 285 8
14 287 10
14 288 1
14 289 6
14 290 5
14 293 1
14 295 6
14 298 8
15 20 8
15 26 10
15 27 1
15 32 5
15 35 5
15 36 5
15 37 10
15 40 6
15 41 7
15 46 2
15 49 6
15 52 7
15 53 1
15 54 9
15 57 1
15 58 1
15 60 6
15 61 1
15 63 10
15 67 2
15 68 7
15 70 8
15 73 9
15 74 9
15 75 2
15 76 3
15 78 3
15 79 5
15 80 7
15 82 10
15 85 3
15 86 2
15 87 3
15 89 8
15 90 5
15 93 2
15 94 8
15 95 3
15 96 7
15 97 8
15 98 4
15 101 5
15 104 7
15 106 2
15 107 4
15 109 7
15 111 5
15 112 3
15 115 7
15 121 10
15 122 6
15 123 6
15 127 3
15 130 1
15 132 5
15 135 6
15 136 1
15 138 1
15 141 10
15 142 2
15 144 2
15 148 1
15 149 4
15 150 2
15 157 6
15 160 1
15 161 3
15 165 5
15 170 9
15 174 4
15 175 10
15 176 9
15 177 10
15 179 6
15 180 7
15 181 9
15 183 9
15 184 2
15 185 6
15 186 8
15 187 9
15 192 8
15 193 10
15 194 2
15 196 1
15 197 9
15 198 10
15 201 1
15 202 6
15 204 9
15 205 6
15 206 10
15 207 6
15 208 10
15 209 8
15 211 1
15 214 6
15 216 5
15 217 2
15 220 3
15 224 6
15 226 10
15 227 2
15 228 1
15 232 1
15 234 7
15 235 2
15 239 8
15 240 1
15 241 4
15 242 9
15 243 2
15 246 3
15 249 1
15 251 1
15 256 7
15 258 9
15 261 6
15 262 3
15 263 8
15 264 1
15 265 2
15 269 7
15 270 10
15 272 6
15 274 5
15 275 6
15 278 5
15 279 3
15 281 6
15 283 2
15 284 1
15 286 4
15 291 9
15 292 1
15 294 2
15 296 6
15 298 8
16 20 7
16 23 8
16 25 1
16 26 8
16 28 6
16 29 7
16 30 10
16 31 4
16 32 6
16 34 5
16 36 9
16 38 3
16 41 1
16 45 9
16 49 6
16 52 3
16 53 5
16 54 7
16 56 5
16 57 9
16 58 5
16 59 9
16 60 1
16 64 7
16 68 8
16 69 3
16 74 10
16 75 8
16 78 5
16 80 2
16 81 2
16 82 5
16 83 1
16 84 6
16 85 1
16 86 4
16 87 7
16 88 5
16 90 4
16 93 6
16 94 8
16 95 5
16 98 1
16 100 6
16 103 5
16 105 4
16 106 8
16 108 3
16 110 3
16 111 3
16 114 3
16 115 10
16 119 2
16 120 4
16 122 3
16 123 8
16 124 7
16 125 2
16 126 3
16 128 8
16 129 2
16 132 4
16 133 5
16 136 9
16 137 2
16 139 10
16 140 1
16 141 8
16 142 6
16 145 4
16 146 6
16 147 8
16 150 7
16 155 8
16 156 1
16 158 5
16 162 4
16 163 9
16 165 1
16 170 1
16 171 6
16 172 9
16 173 10
16 177 2
16 178 1
16 181 9
16 184 3
16 187 1
16 188 3
16 189 1
16 192 6
16 193 1
16 194 4
16 197 4
16 199 3
16 200 4
16 201 6
16 202 1
16 205 9
16 207 3
16 211 9
16 212 6
16 214 9
16 220 3
16 225 4
16 228 2
16 230 7
16 231 3
16 232 6
16 236 10
16 237 6
16 238 5
16 242 3
16 250 1
16 251 9
16 253 1
16 258 10
16 261 2
16 263 7
16 265 3
16 266 8
16 267 1
16 270 8
16 271 5
16 272 3
16 273 10
16 274 4
16 277 1
16 279 8
16 283 5
16 284 8
16 285 9
16 288 2
16 289 1
16 291 4
16 293 4
16 294 10
16 297 9
16 299 5
17 18 4
17 19 3
17 22 8
17 23 6
17 24 9
17 26 10
17 27 4
17 29 10
17 30 2
17 31 9
17 32 6
17 35 2
17 36 7
17 41 7
17 42 8
17 43 7
17 45 1
17 47 10
17 48 4
17 51 1
17 52 5
17 53 9
17 55 6
17 58 3
17 59 5
17 60 7
17 64 9
17 65 7
17 66 3
17 67 4
17 69 10
17 70 4
17 71 6
17 72 7
17 77 2
17 78 5
17 79 6
17 81 10
17 83 1
17 85 7
17 88 9
17 91 9
17 92 6
17 93 7
17 94 6
17 95 5
17 98 1
17 99 8
17 102 5
17 103 3
17 105 3
17 107 6
17 108 3
17 111 1
17 114 10
17 116 9
17 121 7
17 122 3
17 123 4
17 127 4
17 128 6
17 130 7
17 133 3
17 140 8
17 143 1
17 144 5
17 147 7
17 148 1
17 149 10
17 151 10
17 152 9
17 155 2
17 157 4
17 159 2
17 161 2
17 162 7
17 163 2
17 164 2
17 167 1
17 168 3
17 169 7
17 171 6
17 172 10
17 173 5
17 175 10
17 176 3
17 177 5
17 182 3
17 184 9
17 189 10
17 190 5
17 192 10
17 193 4
17 196 5
17 197 10
17 198 7
17 199 7
17 203 6
17 204 9
17 205 10
17 208 9
17 212 4
17 215 4
17 216 7
17 217 2
17 219 6
17 221 2
17 223 9
17 224 8
17 226 1
17 227 5
17 229 5
17 233 9
17 234 4
17 236 2
17 237 1
17 238 8
17 239 8
17 240 4
17 243 3
17 244 10
17 245 9
17 250 10
17 252 8
17 253 7
17 254 8
17 255 5
17 259 7
17 260 3
17 263 9
17 264 8
17 268 10
17 269 7
17 271 8
17 274 5
17 279 5
17 281 4
17 283 9
17 284 9
17 285 9
17 287 6
17 288 8
17 289 3
17 290 8
17 291 5
17 292 3
17 294 1
17 295 1
17 298 2
17 300 1
18 19 8
18 21 5
18 23 3
18 25 10
18 29 8
18 30 6
18 33 8
18 35 6
18 40 7
18 41 2
18 42 3
18 48 6
18 50 7
18 51 4
18 53 9
18 54 7
18 55 5
18 58 4
18 60 9
18 61 8
18 62 6
18 65 10
18 66 6
18 67 8
18 68 7
18 69 6
18 73 8
18 74 3
18 75 1
18 81 8
18 85 6
18 86 5
18 90 1
18 92 9
18 94 10
18 98 1
18 101 7
18 104 6
18 105 1
18 106 3
18 109 9
18 111 6
18 112 6
18 115 3
18 116 6
18 120 4
18 122 4
18 123 7
18 124 5
18 125 7
18 126 3
18 128 5
18 129 1
18 130 6
18 132 2
18 133 5
18 134 10
18 135 5
18 138 3
18 142 6
18 144 5
18 145 6
18 146 2
18 148 10
18 151 9
18 153 1
18 154 2
18 156 10
18 158 1
18 160 9
18 163 5
18 164 4
18 165 10
18 166 9
18 168 10
18 170 3
18 173 4
18 174 5
18 179 1
18 180 7
18 183 2
18 189 5
18 190 5
18 192 6
18 193 9
18 194 3
18 196 1
18 197 10
18 199 1
18 200 4
18 201 10
18 202 7
18 204 3
18 207 4
18 208 9
18 209 3
18 210 3
18 211 2
18 217 3
18 218 9
18 219 6
18 220 1
18 224 8
18 225 2
18 226 10
18 228 1
18 231 8
18 232 8
18 233 3
18 234 4
18 235 1
18 236 6
18 238 9
18 239 2
18 241 4
18 242 2
18 243 3
18 245 5
18 246 7
18 248 6
18 251 1
18 253 3
18 255 9
18 257 10
18 258 1
18 260 3
18 261 5
18 263 5
18 265 8
18 266 10
18 268 5
18 269 2
18 273 3
18 274 6
18 277 10
18 282 5
18 283 7
18 284 6
18 285 6
18 286 7
18 288 4
18 289 5
18 290 6
18 291 10
18 295 3
19 22 2
19 25 8
19 30 8
19 35 4
19 37 10
19 38 10
19 39 7
19 44 3
19 46 7
19 47 3
19 49 5
19 50 3
19 51 9
19 52 9
19 53 6
19 54 9
19 59 7
19 63 7
19 64 9
19 65 5
19 66 7
19 68 4
19 69 6
19 72 7
19 77 6
19 78 4
19 79 5
19 81 5
19 82 6
19 83 9
19 84 9
19 85 6
19 87 10
19 88 4
19 90 4
19 92 7
19 93 4
19 94 6
19 95 8
19 96 5
19 97 10
19 98 4
19 99 4
19 100 2
19 103 10
19 107 4
19 108 7
19 110 5
19 113 9
19 114 2
19 116 9
19 117 6
19 122 2
19 123 10
19 124 8
19 127 1
19 128 10
19 130 4
19 132 3
19 133 3
19 135 5
19 136 3
19 139 1
19 144 4
19 145 2
19 147 1
19 148 8
19 150 1
19 152 2
19 153 3
19 155 4
19 157 10
19 158 6
19 161 3
19 163 8
19 167 7
19 168 2
19 169 6
19 171 2
19 173 6
19 180 4
19 185 5
19 186 8
19 188 7
19 189 9
19 190 5
19 192 3
19 195 3
19 196 9
19 200 2
19 201 3
19 202 9
19 204 7
19 205 4
19 207 5
19 210 4
19 216 8
19 217 5
19 218 4
19 219 5
19 220 5
19 224 10
19 226 5
19 228 4
19 230 3
19 231 8
19 232 2
19 234 3
19 236 6
19 237 10
19 238 10
19 240 10
19 242 1
19 244 5
19 245 7
19 246 2
19 247 6
19 249 1
19 250 2
19 251 3
19 252 6
19 253 6
19 256 8
19 257 10
19 260 8
19 261 7
19 262 9
19 263 10
19 264 4
19 265 4
19 266 8
19 267 3
19 268 3
19 269 10
19 270 5
19 273 7
19 278 8
19 279 3
19 280 10
19 286 1
19 287 10
19 288 4
19 291 4
19 292 2
19 295 1
19 297 4
20 21 9
20 22 7
20 26 3
20 28 10
20 31 4
20 32 2
20 33 2
20 34 4
20 36 3
20 37 6
20 38 1
20 40 5
20 41 9
20 42 2
20 45 5
20 47 2
20 48 2
20 49 7
20 50 9
20 53 2
20 54 4
20 58 1
20 60 2
20 63 2
20 64 8
20 65 3
20 66 3
20 69 1
20 73 2
20 74 3
20 76 9
20 77 1
20 78 3
20 79 6
20 81 4
20 82 8
20 85 4
20 86 8
20 87 2
20 89 2
20 91 7
20 93 6
20 94 9
20 95 1
20 106 6
20 107 3
20 111 8
20 113 4
20 114 1
20 116 6
20 117 1
20 119 10
20 120 7
20 122 1
20 126 1
20 127 2
20 129 7
20 130 10
20 131 1
20 134 10
20 135 4
20 137 7
20 138 6
20 144 10
20 146 3
20 149 2
20 151 10
20 154 1
20 155 9
20 156 1
20 157 5
20 159 10
20 162 9
20 163 1
20 164 7
20 169 4
20 171 4
20 172 8
20 173 6
20 178 3
20 179 3
20 180 5
20 183 2
20 184 4
20 186 5
20 187 9
20 189 9
20 190 5
20 191 7
20 192 10
20 195 3
20 197 8
20 198 8
20 199 2
20 200 2
20 201 9
20 203 7
20 204 10
20 205 2
20 206 9
20 209 5
20 210 7
20 211 8
20 215 4
20 216 1
20 217 8
20 219 5
20 221 8
20 222 6
20 224 1
20 229 10
20 231 7
20 232 10
20 233 4
20 234 3
20 240 4
20 244 3
20 246 10
20 250 1
20 251 3
20 252 1
20 254 4
20 257 2
20 260 8
20 262 6
20 263 10
20 264 8
20 266 8
20 268 5
20 271 4
20 273 2
20 275 1
20 276 1
20 277 6
20 279 10
20 280 6
20 282 3
20 283 4
20 287 1
20 288 5
20 289 8
20 290 4
20 291 7
20 292 6
20 294 2
20 295 4
20 297 1
20 298 9
21 22 4
21 24 7
21 25 2
21 26 10
21 27 10
21 29 10
21 31 10
21 33 9
21 34 2
21 37 2
21 39 10
21 40 9
21 42 10
21 43 2
21 50 9
21 54 6
21 58 4
21 59 8
21 62 4
21 63 1
21 64 9
21 66 3
21 67 1
21 70 7
21 71 7
21 72 7
21 76 5
21 79 3
21 82 5
21 83 6
21 84 1
21 86 5
21 89 5
21 90 1
21 92 10
21 100 10
21 102 9
21 103 4
21 105 1
21 107 3
21 108 6
21 109 5
21 111 8
21 114 10
21 116 7
21 118 2
21 119 4
21 121 9
21 123 5
21 124 2
21 125 10
21 126 8
21 127 4
21 129 9
21 132 1
21 133 7
21 136 7
21 137 3
21 143 5
21 147 8
21 148 6
21 149 9
21 150 9
21 152 5
21 156 10
21 159 10
21 160 9
21 161 4
21 164 2
21 165 9
21 166 9
21 168 6
21 169 7
21 172 8
21 173 7
21 175 5
21 177 9
21 178 4
21 179 4
21 180 2
21 184 7
21 185 1
21 187 8
21 191 2
21 192 2
21 194 6
21 195 6
21 200 4
21 203 4
21 206 9
21 207 10
21 212 10
21 213 1
21 214 4
21 216 4
21 218 7
21 219 7
21 221 5
21 224 2
21 225 5
21 226 7
21 227 1
21 230 8
21 231 3
21 232 10
21 234 6
21 238 3
21 242 3
21 243 3
21 244 1
21 245 10
21 246 3
21 247 9
21 248 9
21 249 10
21 250 1
21 251 3
21 252 9
21 254 2
21 255 5
21 256 10
21 257 4
21 260 3
21 263 1
21 265 1
21 267 3
21 271 5
21 272 8
21 278 5
21 279 2
21 283 6
21 284 3
21 286 10
21 287 10
21 289 6
21 290 4
21 291 6
21 292 7
21 293 5
21 298 7
21 299 8
21 300 10
22 23 10
22 24 8
22 27 2
22 29 5
22 30 10
22 31 3
22 32 2
22 33 9
22 35 6
22 36 8
22 37 8
22 38 3
22 39 3
22 40 8
22 42 10
22 43 9
22 46 8
22 47 8
22 48 6
22 50 4
22 54 2
22 58 5
22 59 3
22 60 1
22 61 5
22 68 5
22 71 8
22 73 7
22 74 5
22 75 1
22 76 3
22 77 4
22 79 8
22 81 6
22 82 6
22 86 6
22 87 5
22 88 2
22 89 3
22 95 10
22 98 2
22 103 4
22 104 5
22 109 9
22 110 1
22 111 8
22 116 2
22 118 2
22 121 5
22 123 8
22 125 2
22 127 10
22 129 10
22 131 7
22 132 3
22 139 6
22 141 9
22 143 4
22 144 6
22 145 6
22 146 3
22 147 6
22 148 8
22 152 2
22 153 4
22 156 4
22 157 4
22 160 2
22 165 2
22 166 8
22 176 4
22 177 4
22 178 1
22 179 10
22 184 3
22 185 2
22 186 6
22 187 9
22 189 4
22 190 10
22 191 4
22 193 10
22 195 3
22 198 5
22 199 9
22 200 3
22 202 3
22 203 3
22 205 4
22 206 9
22 207 6
22 208 8
22 210 7
22 211 10
22 212 5
22 213 3
22 218 3
22 224 1
22 227 6
22 228 5
22 229 7
22 230 9
22 235 2
22 239 6
22 241 1
22 242 10
22 246 2
22 250 9
22 251 7
22 252 7
22 253 4
22 256 9
22 257 2
22 258 6
22 259 5
22 262 10
22 263 1
22 264 10
22 270 6
22 271 2
22 273 3
22 277 7
22 278 2
22 280 1
22 281 6
22 284 5
22 285 2
22 286 1
22 292 4
22 293 3
22 297 4
22 298 2
23 26 3
23 27 10
23 30 4
23 31 2
23 33 7
23 39 8
23 40 8
23 43 3
23 45 10
23 46 8
23 51 3
23 52 10
23 55 4
23 56 6
23 57 3
23 58 9
23 61 6
23 62 2
23 64 8
23 66 4
23 71 6
23 74 6
23 75 6
23 78 7
23 82 1
23 83 6
23 84 6
23 87 8
23 90 9
23 91 7
23 92 9
23 93 7
23 95 8
23 96 7
23 98 7
23 101 3
23 102 8
23 103 7
23 105 9
23 107 1
23 109 9
23 110 7
23 112 3
23 113 7
23 114 2
23 115 2
23 116 5
23 117 8
23 118 4
23 121 9
23 122 7
23 125 4
23 130 7
23 132 9
23 133 7
23 136 5
23 137 4
23 138 1
23 140 2
23 141 10
23 142 4
23 143 4
23 145 7
23 147 2
23 149 5
23 150 4
23 152 5
23 153 7
23 154 5
23 155 4
23 158 4
23 159 10
23 160 5
23 161 6
23 163 5
23 165 10
23 166 9
23 167 1
23 174 6
23 175 2
23 177 2
23 178 4
23 181 10
23 182 5
23 188 2
23 191 3
23 192 5
23 193 7
23 194 9
23 195 1
23 196 8
23 197 6
23 200 3
23 202 3
23 203 7
23 206 4
23 209 2
23 213 3
23 214 9
23 215 9
23 217 8
23 220 4
23 222 8
23 223 3
23 225 4
23 226 8
23 228 8
23 229 4
23 232 1
23 233 1
23 234 7
23 235 10
23 236 10
23 239 4
23 240 4
23 241 10
23 242 3
23 245 1
23 248 8
23 249 4
23 250 1
23 251 5
23 254 9
23 255 1
23 257 9
23 261 10
23 262 2
23 265 7
23 266 2
23 271 3
23 272 1
23 273 9
23 276 5
23 277 4
23 278 4
23 282 8
23 284 1
23 288 8
23 289 9
23 290 1
23 293 8
23 294 2
23 295 7
23 296 5
23 298 2
23 299 6
23 300 10
24 26 8
24 27 1
24 28 7
24 30 4
24 34 1
24 35 7
24 40 5
24 42 3
24 45 9
24 46 7
24 47 2
24 48 3
24 49 7
24 53 2
24 55 4
24 58 4
24 60 5
24 61 6
24 64 6
24 66 2
24 68 3
24 70 5
24 72 1
24 75 4
24 76 1
24 78 10
24 80 2
24 83 2
24 84 10
24 85 2
24 87 5
24 89 8
24 90 2
24 91 1
24 92 4
24 95 5
24 96 3
24 98 7
24 100 3
24 101 1
24 102 10
24 103 8
24 104 1
24 105 3
24 107 10
24 111 4
24 112 3
24 113 6
24 114 1
24 117 10
24 118 8
24 119 1
24 120 3
24 121 1
24 122 1
24 123 1
24 125 5
24 128 7
24 130 8
24 131 2
24 133 1
24 134 9
24 138 9
24 143 8
24 146 6
24 148 1
24 150 3
24 152 10
24 153 4
24 155 1
24 159 3
24 162 2
24 164 3
24 165 6
24 166 8
24 168 9
24 169 5
24 170 3
24 171 4
24 173 6
24 174 7
24 178 9
24 183 3
24 184 3
24 185 9
24 187 8
24 188 6
24 190 9
24 191 6
24 193 6
24 196 10
24 197 7
24 198 8
24 199 7
24 202 7
24 203 10
24 208 6
24 209 6
24 210 9
24 211 10
24 212 2
24 213 8
24 214 6
24 216 5
24 218 5
24 220 7
24 222 7
24 224 3
24 225 10
24 226 6
24 228 3
24 229 10
24 232 1
24 233 5
24 238 9
24 240 2
24 241 6
24 242 3
24 243 8
24 245 5
24 246 9
24 247 7
24 252 3
24 254 9
24 255 2
24 261 4
24 262 5
24 263 5
24 267 10
24 268 3
24 269 3
24 272 2
24 274 4
24 275 1
24 281 2
24 283 1
24 284 6
24 285 1
24 286 1
24 287 2
24 289 8
24 291 10
24 294 5
24 296 5
24 298 5
24 299 2
24 300 5
25 27 7
25 31 1
25 32 4
25 35 8
25 36 1
25 37 5
25 39 5
25 43 3
25 44 7
25 45 10
25 46 1
25 47 2
25 48 1
25 53 8
25 54 6
25 59 9
25 62 6
25 63 9
25 64 8
25 67 8
25 69 3
25 71 8
25 73 8
25 74 4
25 76 2
25 77 10
25 78 3
25 79 7
25 81 1
25 82 9
25 83 6
25 84 8
25 85 7
25 86 9
25 87 7
25 90 3
25 92 6
25 93 2
25 94 2
25 97 1
25 98 4
25 99 8
25 102 2
25 104 6
25 105 6
25 106 10
25 107 7
25 109 4
25 111 7
25 112 4
25 114 6
25 120 2
25 121 2
25 122 2
25 123 4
25 125 8
25 127 9
25 129 6
25 132 2
25 133 3
25 134 7
25 140 6
25 141 4
25 145 4
25 149 4
25 153 10
25 156 5
25 158 8
25 159 4
25 160 10
25 163 9
25 165 10
25 166 7
25 167 9
25 169 9
25 170 4
25 176 6
25 179 9
25 182 5
25 186 9
25 187 8
25 191 8
25 194 4
25 195 8
25 196 1
25 197 5
25 198 2
25 200 5
25 201 7
25 202 9
25 203 7
25 204 8
25 206 10
25 208 8
25 211 1
25 213 6
25 214 1
25 217 7
25 218 6
25 221 3
25 222 6
25 225 1
25 226 7
25 227 1
25 230 7
25 231 1
25 232 2
25 233 9
25 234 10
25 238 4
25 243 10
25 247 4
25 248 7
25 251 3
25 252 6
25 253 10
25 255 3
25 259 3
25 260 4
25 265 1
25 267 8
25 269 8
25 271 10
25 273 7
25 274 9
25 275 4
25 282 3
25 283 2
25 289 5
25 290 2
25 291 1
25 292 10
25 295 4
25 298 5
26 28 1
26 30 6
26 31 5
26 32 8
26 35 4
26 39 9
26 40 10
26 46 1
26 50 6
26 51 10
26 54 2
26 55 7
26 56 5
26 57 9
26 58 4
26 59 2
26 63 7
26 64 6
26 65 9
26 70 5
26 71 6
26 73 7
26 76 4
26 77 1
26 79 3
26 80 9
26 81 1
26 82 6
26 83 10
26 84 2
26 85 7
26 87 8
26 90 2
26 91 1
26 93 1
26 94 3
26 95 2
26 96 5
26 100 3
26 102 9
26 104 4
26 105 1
26 106 2
26 108 10
26 110 10
26 111 1
26 112 3
26 113 4
26 114 2
26 117 8
26 118 9
26 119 7
26 122 7
26 124 1
26 128 9
26 129 10
26 130 5
26 131 6
26 138 10
26 142 5
26 143 4
26 147 1
26 149 8
26 151 10
26 154 1
26 157 5
26 158 6
26 159 3
26 160 1
26 161 10
26 162 3
26 164 7
26 166 7
26 167 7
26 170 3
26 172 6
26 173 7
26 174 10
26 175 7
26 178 9
26 179 2
26 181 10
26 186 7
26 191 5
26 192 10
26 197 4
26 198 8
26 199 6
26 200 2
26 201 9
26 205 7
26 207 1
26 208 10
26 210 9
26 211 1
26 213 5
26 215 4
26 219 3
26 220 7
26 222 3
26 223 2
26 224 1
26 226 6
26 229 6
26 231 1
26 232 5
26 234 10
26 235 10
26 236 8
26 238 9
26 243 7
26 244 2
26 245 4
26 246 5
26 250 8
26 251 10
26 252 6
26 254 5
26 257 10
26 259 1
26 260 3
26 261 6
26 262 10
26 264 8
26 268 5
26 269 10
26 270 2
26 274 6
26 276 3
26 279 7
26 280 6
26 285 2
26 287 1
26 288 6
26 290 7
26 291 3
26 294 8
26 295 2
26 298 10
26 299 5
26 300 7
27 28 6
27 32 10
27 34 4
27 35 7
27 36 9
27 39 6
27 40 7
27 41 3
27 48 3
27 49 9
27 50 7
27 59 5
27 62 2
27 65 6
27 66 9
27 68 8
27 69 2
27 71 8
27 74 9
27 76 5
27 77 3
27 78 4
27 79 6
27 81 2
27 87 2
27 88 5
27 89 1
27 91 2
27 95 9
27 99 9
27 102 7
27 105 10
27 106 8
27 108 7
27 110 7
27 111 2
27 112 3
27 113 8
27 117 10
27 118 6
27 119 10
27 120 7
27 121 1
27 122 8
27 124 9
27 128 5
27 129 10
27 132 7
27 135 1
27 137 9
27 140 3
27 141 10
27 142 3
27 143 6
27 145 5
27 146 1
27 152 10
27 154 4
27 155 4
27 157 5
27 158 4
27 159 8
27 161 5
27 163 8
27 165 10
27 168 7
27 169 1
27 171 2
27 172 5
27 173 6
27 174 2
27 175 8
27 180 1
27 182 6
27 184 1
27 186 2
27 188 8
27 190 10
27 191 10
27 192 5
27 193 5
27 195 8
27 197 6
27 199 9
27 201 5
27 202 6
27 203 10
27 205 5
27 207 2
27 211 7
27 214 3
27 215 9
27 216 3
27 217 1
27 219 5
27 220 10
27 222 1
27 226 5
27 227 2
27 231 4
27 232 5
27 233 4
27 238 10
27 241 6
27 242 7
27 243 2
27 245 6
27 248 6
27 249 5
27 251 9
27 255 5
27 256 1
27 257 6
27 262 4
27 264 10
27 265 9
27 270 4
27 271 4
27 272 1
27 274 8
27 278 5
27 279 5
27 282 8
27 283 8
27 284 10
27 288 5
27 293 8
27 294 3
27 298 4
27 300 9
28 29 7
28 31 2
28 32 5
28 33 4
28 34 5
28 36 9
28 38 2
28 39 6
28 41 4
28 44 10
28 45 10
28 48 3
28 49 9
28 50 2
28 51 6
28 52 7
28 54 5
28 57 4
28 59 3
28 60 4
28 61 7
28 64 9
28 67 1
28 70 2
28 72 4
28 73 1
28 75 8
28 79 10
28 82 9
28 83 5
28 84 1
28 86 2
28 88 5
28 89 8
28 91 8
28 92 2
28 93 7
28 94 5
28 95 10
28 104 2
28 105 1
28 106 10
28 108 2
28 111 2
28 117 10
28 120 5
28 123 3
28 124 7
28 125 8
28 127 7
28 130 5
28 132 3
28 133 2
28 134 3
28 136 2
28 137 10
28 138 6
28 139 1
28 143 9
28 144 3
28 148 9
28 153 9
28 155 1
28 158 5
28 159 4
28 162 4
28 163 4
28 164 9
28 166 8
28 167 2
28 169 4
28 173 3
28 175 3
28 177 1
28 180 9
28 183 2
28 185 9
28 188 8
28 191 9
28 192 5
28 193 8
28 194 9
28 195 4
28 200 3
28 201 7
28 202 2
28 205 6
28 206 2
28 208 7
28 209 3
28 210 8
28 211 10
28 212 6
28 214 9
28 217 10
28 218 2
28 219 3
28 220 7
28 221 3
28 222 6
28 223 9
28 224 1
28 225 8
28 226 10
28 230 8
28 235 2
28 236 6
28 241 6
28 242 6
28 246 5
28 248 5
28 251 4
28 253 7
28 254 8
28 255 1
28 259 4
28 260 1
28 261 9
28 262 6
28 267 4
28 274 2
28 278 3
28 280 9
28 282 5
28 286 3
28 288 6
28 292 6
28 295 4
28 298 10
28 299 10
29 31 10
29 34 9
29 35 3
29 37 1
29 41 8
29 42 8
29 43 8
29 45 9
29 47 8
29 48 7
29 49 2
29 52 9
29 53 2
29 55 2
29 58 3
29 59 9
29 60 3
29 61 5
29 62 9
29 63 6
29 65 8
29 67 2
29 69 4
29 71 2
29 73 10
29 74 9
29 75 4
29 77 5
29 78 7
29 79 4
29 80 8
29 81 6
29 82 7
29 84 2
29 86 3
29 88 3
29 90 6
29 91 9
29 92 2
29 93 2
29 95 2
29 99 3
29 102 7
29 103 6
29 104 6
29 112 8
29 114 9
29 117 10
29 119 7
29 123 6
29 125 5
29 132 1
29 133 8
29 134 3
29 137 9
29 138 8
29 139 6
29 141 10
29 145 3
29 146 6
29 148 3
29 151 9
29 152 2
29 153 10
29 154 9
29 155 8
29 160 10
29 162 3
29 163 9
29 164 7
29 165 8
29 168 9
29 169 9
29 170 1
29 171 4
29 173 3
29 174 8
29 175 9
29 177 8
29 179 4
29 181 2
29 185 8
29 189 5
29 195 8
29 196 7
29 198 2
29 201 7
29 204 3
29 209 7
29 210 1
29 212 3
29 216 9
29 219 3
29 223 9
29 226 4
29 227 3
29 230 7
29 232 9
29 233 8
29 234 10
29 235 4
29 236 3
29 237 4
29 240 6
29 241 9
29 243 7
29 244 10
29 246 7
29 251 3
29 256 4
29 262 7
29 264 5
29 265 8
29 266 6
29 269 7
29 271 1
29 272 7
29 273 3
29 275 2
29 277 5
29 279 1
29 280 4
29 282 4
29 284 3
29 286 6
29 287 7
29 288 7
29 294 5
29 295 7
29 297 6
29 298 9
29 300 2
30 32 9
30 33 4
30 34 1
30 35 3
30 36 2
30 37 2
30 49 1
30 52 4
30 53 6
30 56 5
30 60 5
30 61 2
30 62 7
30 63 2
30 66 2
30 69 7
30 72 7
30 74 6
30 78 2
30 80 10
30 82 5
30 83 2
30 84 5
30 86 2
30 88 7
30 92 9
30 94 2
30 97 1
30 98 8
30 100 7
30 103 2
30 104 10
30 105 10
30 106 3
30 110 1
30 114 3
30 116 8
30 117 3
30 119 8
30 121 4
30 124 6
30 126 8
30 127 5
30 129 8
30 131 9
30 136 3
30 137 7
30 140 5
30 145 2
30 146 4
30 148 8
30 149 3
30 151 10
30 154 2
30 155 5
30 158 7
30 160 9
30 162 1
30 165 1
30 169 4
30 173 2
30 174 2
30 175 7
30 178 10
30 180 8
30 181 4
30 182 6
30 186 3
30 189 1
30 191 2
30 193 4
30 194 6
30 195 3
30 198 10
30 200 9
30 201 6
30 204 8
30 206 9
30 207 10
30 211 8
30 212 7
30 213 5
30 216 6
30 217 1
30 220 9
30 221 3
30 222 2
30 223 3
30 224 6
30 225 9
30 231 10
30 234 5
30 239 1
30 241 9
30 243 7
30 244 10
30 246 7
30 248 4
30 249 1
30 252 10
30 253 3
30 256 10
30 257 3
30 258 5
30 259 8
30 262 2
30 264 7
30 266 3
30 267 3
30 268 6
30 271 10
30 272 3
30 274 6
30 275 1
30 279 7
30 281 5
30 282 1
30 283 10
30 284 6
30 285 10
30 286 4
30 288 5
30 289 9
30 294 6
30 298 1
30 299 2
31 33 9
31 41 6
31 44 10
31 46 6
31 52 1
31 55 1
31 56 7
31 59 4
31 60 9
31 62 1
31 63 4
31 66 1
31 74 9
31 77 4
31 78 5
31 79 4
31 83 4
31 86 8
31 87 5
31 89 1
31 90 5
31 91 1
31 94 9
31 95 5
31 96 2
31 97 6
31 98 6
31 99 5
31 100 8
31 102 4
31 104 7
31 107 2
31 109 6
31 111 6
31 116 2
31 117 2
31 118 7
31 120 7
31 123 4
31 124 9
31 129 8
31 130 1
31 137 5
31 140 10
31 141 2
31 144 10
31 146 3
31 147 8
31 150 7
31 151 6
31 154 8
31 157 7
31 160 7
31 161 10
31 163 10
31 164 3
31 167 9
31 169 4
31 170 9
31 175 2
31 176 7
31 185 1
31 188 4
31 190 9
31 192 6
31 193 8
31 195 4
31 196 9
31 198 4
31 199 6
31 200 4
31 202 9
31 204 5
31 207 3
31 208 6
31 209 1
31 212 4
31 213 10
31 215 5
31 216 6
31 217 8
31 219 2
31 222 9
31 225 4
31 226 9
31 227 6
31 229 1
31 230 2
31 234 7
31 235 3
31 236 5
31 243 7
31 244 4
31 245 1
31 247 10
31 248 5
31 258 7
31 259 7
31 260 3
31 261 4
31 262 8
31 263 5
31 266 4
31 268 1
31 269 10
31 270 6
31 271 8
31 275 9
31 277 5
31 278 7
31 279 3
31 281 5
31 282 10
31 287 9
31 290 8
31 299 9
31 300 10
32 33 10
32 34 3
32 38 5
32 40 3
32 42 6
32 44 3
32 45 7
32 46 6
32 49 10
32 50 8
32 51 7
32 56 3
32 60 3
32 61 5
32 63 4
32 64 4
32 65 1
32 67 10
32 70 6
32 71 10
32 72 5
32 74 6
32 75 1
32 76 3
32 78 4
32 80 5
32 81 7
32 82 2
32 83 8
32 84 6
32 86 6
32 87 7
32 88 9
32 89 9
32 90 10
32 91 10
32 92 1
32 95 6
32 96 6
32 97 2
32 99 3
32 100 9
32 102 7
32 104 8
32 107 1
32 108 4
32 110 4
32 112 9
32 115 10
32 116 3
32 117 2
32 120 7
32 121 5
32 122 8
32 123 9
32 124 10
32 125 4
32 126 9
32 130 7
32 133 8
32 135 2
32 137 9
32 138 1
32 140 5
32 141 10
32 142 1
32 143 6
32 144 6
32 145 1
32 148 5
32 149 3
32 150 8
32 151 5
32 155 8
32 158 5
32 159 6
32 161 7
32 164 3
32 168 4
32 169 5
32 170 3
32 173 8
32 175 2
32 177 7
32 178 10
32 180 5
32 182 3
32 184 8
32 186 3
32 187 9
32 190 1
32 191 10
32 192 1
32 194 2
32 196 2
32 197 6
32 198 7
32 201 4
32 206 8
32 208 9
32 209 3
32 212 7
32 213 2
32 214 6
32 215 1
32 218 3
32 220 5
32 221 10
32 224 9
32 226 6
32 227 1
32 231 5
32 232 2
32 235 8
32 236 2
32 237 9
32 238 8
32 239 4
32 241 7
32 243 3
32 246 4
32 247 1
32 251 4
32 252 9
32 254 4
32 259 9
32 260 4
32 261 7
32 262 3
32 263 7
32 265 4
32 268 2
32 273 5
32 275 8
32 277 1
32 280 10
32 281 5
32 282 3
32 283 2
32 290 3
32 292 5
32 296 8
32 298 1
32 300 1
33 35 7
33 37 5
33 39 7
33 44 10
33 47 3
33 48 4
33 54 1
33 55 5
33 56 10
33 57 7
33 59 9
33 61 1
33 63 2
33 65 9
33 68 6
33 69 3
33 70 7
33 71 1
33 73 6
33 75 6
33 83 9
33 84 1
33 85 10
33 86 1
33 87 1
33 91 9
33 92 4
33 96 2
33 100 6
33 103 1
33 105 1
33 106 9
33 108 3
33 109 3
33 113 7
33 114 3
33 115 3
33 117 4
33 118 2
33 119 8
33 120 10
33 121 7
33 122 4
33 123 4
33 125 2
33 126 5
33 127 2
33 128 3
33 131 8
33 132 3
33 133 6
33 134 10
33 135 4
33 136 5
33 142 7
33 147 3
33 148 10
33 150 7
33 151 6
33 153 6
33 154 9
33 156 6
33 157 10
33 161 9
33 163 3
33 166 10
33 167 5
33 173 5
33 174 4
33 177 1
33 179 5
33 181 9
33 182 7
33 183 4
33 185 7
33 189 7
33 190 10
33 192 6
33 193 7
33 194 7
33 196 4
33 201 8
33 205 5
33 207 5
33 208 6
33 210 1
33 211 1
33 212 6
33 216 5
33 217 3
33 218 8
33 219 1
33 221 7
33 223 4
33 227 1
33 228 3
33 230 9
33 232 7
33 233 4
33 234 1
33 235 5
33 237 4
33 239 1
33 242 5
33 243 2
33 244 9
33 247 3
33 249 7
33 252 10
33 253 5
33 256 5
33 260 2
33 261 5
33 262 4
33 263 4
33 266 2
33 269 2
33 272 6
33 273 7
33 275 7
33 276 2
33 277 8
33 279 5
33 280 3
33 281 9
33 282 4
33 283 10
33 286 5
33 287 9
33 288 1
33 289 8
33 292 3
33 294 8
33 296 2
33 297 6
33 298 8
34 36 3
34 37 5
34 38 1
34 39 10
34 40 3
34 41 7
34 42 5
34 44 9
34 45 6
34 48 4
34 50 9
34 55 8
34 61 8
34 62 8
34 65 2
34 66 3
34 68 1
34 69 8
34 72 1
34 74 2
34 75 4
34 78 4
34 80 8
34 84 4
34 86 3
34 88 9
34 90 7
34 91 2
34 92 7
34 93 6
34 96 8
34 97 8
34 98 5
34 99 10
34 100 5
34 101 8
34 102 6
34 103 3
34 104 5
34 106 1
34 107 8
34 109 8
34 110 1
34 113 9
34 117 4
34 118 10
34 119 7
34 120 9
34 122 3
34 124 10
34 125 8
34 126 3
34 127 9
34 129 9
34 130 9
34 133 9
34 134 2
34 136 4
34 138 6
34 140 8
34 141 9
34 143 5
34 144 7
34 145 4
34 146 8
34 147 8
34 148 7
34 149 8
34 151 2
34 154 1
34 161 8
34 162 3
34 166 8
34 170 3
34 171 5
34 173 6
34 175 2
34 183 7
34 184 7
34 191 2
34 192 7
34 194 5
34 196 9
34 198 2
34 200 3
34 202 7
34 205 1
34 206 9
34 207 3
34 208 10
34 209 2
34 217 10
34 218 6
34 219 2
34 221 3
34 224 4
34 227 8
34 229 8
34 234 4
34 236 9
34 239 8
34 240 7
34 242 2
34 244 3
34 246 2
34 249 4
34 251 9
34 253 4
34 258 3
34 259 4
34 260 7
34 261 10
34 264 10
34 266 2
34 267 5
34 268 1
34 271 10
34 273 3
34 274 7
34 275 6
34 278 4
34 281 6
34 282 10
34 283 2
34 285 4
34 286 3
34 287 10
34 288 2
34 291 4
34 293 7
34 296 9
34 297 1
34 300 7
35 37 3
35 39 6
35 41 1
35 42 3
35 43 1
35 44 6
35 45 10
35 46 9
35 49 7
35 50 10
35 53 1
35 57 6
35 59 1
35 60 10
35 61 3
35 63 10
35 64 6
35 69 2
35 70 6
35 71 5
35 73 5
35 74 10
35 78 10
35 83 8
35 87 3
35 88 7
35 91 8
35 95 8
35 96 10
35 97 10
35 98 9
35 99 10
35 103 4
35 104 7
35 105 2
35 106 3
35 112 2
35 116 2
35 118 10
35 120 3
35 122 5
35 131 1
35 134 8
35 135 4
35 136 4
35 141 10
35 145 8
35 147 3
35 148 3
35 153 8
35 154 7
35 156 3
35 157 1
35 159 3
35 160 3
35 161 8
35 162 5
35 163 2
35 164 7
35 166 6
35 167 1
35 168 7
35 169 7
35 170 9
35 171 9
35 172 5
35 175 7
35 179 4
35 185 8
35 189 7
35 191 7
35 194 3
35 196 8
35 198 1
35 200 7
35 202 8
35 203 3
35 204 10
35 210 8
35 213 4
35 214 3
35 215 6
35 216 10
35 219 9
35 220 9
35 222 6
35 225 8
35 229 10
35 230 4
35 231 1
35 233 8
35 234 6
35 235 3
35 237 5
35 240 1
35 242 10
35 243 2
35 244 9
35 245 7
35 248 3
35 252 2
35 253 8
35 254 1
35 256 4
35 257 4
35 259 5
35 261 2
35 263 10
35 265 1
35 266 8
35 272 8
35 273 1
35 276 1
35 277 8
35 278 6
35 280 7
35 281 2
35 283 1
35 284 6
35 285 1
35 287 4
35 288 1
35 291 7
35 293 5
35 294 1
35 295 3
35 296 8
35 297 1
36 38 7
36 39 7
36 40 7
36 41 1
36 43 5
36 45 10
36 47 8
36 48 2
36 52 7
36 53 8
36 54 4
36 55 7
36 56 5
36 58 9
36 61 6
36 62 5
36 65 1
36 67 7
36 72 3
36 75 2
36 78 10
36 80 8
36 82 7
36 85 8
36 88 9
36 89 10
36 90 6
36 91 6
36 92 9
36 93 1
36 94 4
36 95 10
36 99 10
36 100 1
36 101 9
36 103 3
36 107 10
36 109 5
36 110 10
36 111 5
36 112 5
36 115 4
36 116 5
36 118 7
36 121 4
36 124 7
36 125 7
36 127 1
36 131 7
36 132 1
36 133 5
36 136 8
36 138 2
36 140 1
36 144 2
36 145 5
36 146 3
36 148 1
36 149 5
36 150 4
36 151 10
36 152 1
36 154 5
36 155 2
36 156 3
36 157 2
36 161 3
36 162 4
36 163 10
36 165 10
36 166 10
36 167 6
36 168 4
36 169 3
36 172 3
36 175 5
36 176 7
36 177 3
36 180 9
36 181 7
36 185 8
36 186 2
36 188 10
36 189 2
36 190 6
36 191 2
36 201 7
36 203 5
36 204 8
36 209 8
36 211 3
36 212 5
36 213 1
36 215 10
36 219 5
36 220 3
36 221 5
36 223 2
36 226 8
36 227 2
36 229 9
36 233 6
36 235 4
36 237 8
36 238 9
36 240 5
36 242 2
36 243 9
36 244 8
36 245 7
36 247 2
36 248 5
36 249 6
36 252 3
36 254 3
36 255 9
36 256 3
36 260 1
36 261 5
36 263 7
36 264 9
36 265 9
36 266 2
36 271 9
36 272 7
36 273 1
36 274 8
36 275 8
36 277 3
36 278 2
36 279 2
36 282 6
36 283 7
36 285 6
36 289 1
36 290 1
36 291 10
36 292 8
36 294 5
36 295 5
36 296 10
36 297 4
36 299 1
37 38 7
37 40 2
37 42 5
37 44 9
37 45 2
37 48 9
37 50 9
37 51 4
37 53 1
37 55 6
37 56 7
37 58 7
37 59 9
37 60 2
37 62 8
37 63 5
37 64 4
37 65 10
37 72 7
37 75 2
37 77 10
37 82 8
37 83 2
37 84 9
37 85 8
37 86 2
37 89 8
37 91 9
37 95 3
37 96 2
37 99 3
37 101 4
37 102 10
37 105 4
37 110 10
37 111 9
37 112 6
37 113 1
37 118 4
37 120 3
37 121 10
37 122 8
37 124 8
37 129 3
37 131 6
37 136 7
37 140 5
37 141 7
37 144 2
37 145 1
37 147 9
37 148 8
37 150 10
37 151 5
37 152 1
37 154 4
37 156 10
37 157 8
37 158 5
37 159 9
37 160 1
37 163 8
37 164 5
37 165 9
37 166 10
37 167 10
37 168 9
37 170 9
37 171 8
37 174 8
37 175 3
37 177 8
37 178 1
37 183 4
37 184 6
37 185 7
37 186 3
37 191 8
37 194 9
37 196 5
37 203 10
37 208 8
37 210 9
37 211 9
37 212 8
37 214 6
37 216 8
37 217 4
37 219 4
37 220 7
37 221 3
37 223 4
37 224 9
37 225 8
37 229 3
37 231 9
37 232 1
37 233 2
37 234 5
37 235 8
37 239 7
37 241 1
37 242 10
37 243 4
37 245 10
37 247 7
37 250 9
37 252 10
37 253 8
37 254 7
37 259 2
37 262 3
37 265 6
37 267 8
37 268 8
37 270 10
37 273 6
37 274 10
37 275 9
37 276 3
37 278 5
37 280 5
37 281 2
37 283 1
37 284 1
37 285 2
37 286 3
37 287 7
37 289 4
37 290 4
37 291 7
37 292 6
37 295 7
37 297 4
38 41 5
38 43 5
38 44 6
38 46 1
38 49 9
38 51 1
38 54 2
38 55 3
38 56 5
38 57 6
38 58 2
38 60 10
38 61 8
38 62 8
38 65 10
38 66 8
38 70 1
38 78 2
38 82 4
38 83 10
38 85 3
38 86 10
38 87 8
38 88 1
38 89 9
38 91 10
38 93 10
38 94 10
38 95 2
38 96 7
38 97 8
38 101 4
38 103 6
38 106 5
38 107 3
38 109 7
38 110 5
38 111 1
38 113 10
38 114 10
38 116 7
38 117 10
38 120 6
38 121 9
38 123 3
38 124 3
38 125 8
38 129 9
38 130 7
38 131 1
38 134 6
38 140 4
38 141 3
38 143 5
38 144 4
38 146 5
38 147 4
38 148 5
38 150 2
38 152 4
38 153 8
38 154 2
38 155 7
38 156 6
38 158 5
38 161 2
38 162 2
38 163 3
38 165 4
38 167 5
38 172 9
38 173 6
38 176 8
38 178 8
38 179 6
38 180 9
38 181 4
38 184 4
38 191 3
38 192 1
38 193 5
38 194 6
38 195 8
38 196 9
38 197 1
38 199 10
38 202 5
38 203 2
38 204 10
38 206 9
38 210 9
38 212 6
38 214 3
38 215 1
38 219 3
38 221 7
38 222 4
38 223 9
38 225 8
38 232 3
38 233 5
38 239 5
38 240 2
38 242 10
38 248 8
38 249 2
38 250 5
38 252 6
38 253 6
38 254 9
38 256 10
38 257 2
38 260 2
38 261 1
38 262 5
38 265 1
38 267 2
38 271 2
38 272 9
38 273 2
38 274 2
38 275 9
38 278 5
38 281 3
38 282 4
38 283 1
38 286 2
38 287 6
38 289 7
38 290 5
38 291 7
38 292 10
38 293 6
38 295 4
38 296 8
38 297 5
38 298 10
38 299 2
38 300 6
39 42 5
39 44 8
39 45 2
39 51 9
39 54 2
39 62 2
39 66 2
39 70 4
39 71 7
39 72 9
39 74 4
39 75 7
39 76 1
39 77 7
39 79 10
39 80 10
39 81 6
39 87 10
39 90 1
39 91 10
39 92 1
39 93 5
39 94 10
39 96 4
39 98 8
39 100 1
39 101 1
39 102 7
39 103 4
39 104 9
39 105 7
39 106 7
39 108 5
39 109 6
39 110 5
39 112 10
39 113 9
39 115 9
39 116 7
39 117 3
39 118 5
39 120 4
39 123 4
39 124 6
39 126 2
39 127 5
39 128 9
39 129 7
39 133 5
39 134 3
39 136 2
39 138 3
39 139 2
39 141 5
39 145 8
39 150 1
39 151 9
39 154 4
39 155 9
39 156 3
39 157 4
39 158 9
39 159 4
39 160 1
39 174 6
39 175 1
39 176 6
39 177 6
39 178 3
39 181 2
39 186 1
39 189 7
39 191 1
39 192 9
39 197 8
39 198 2
39 200 10
39 202 5
39 203 2
39 207 7
39 208 2
39 211 8
39 212 6
39 213 3
39 214 10
39 215 4
39 218 9
39 219 9
39 220 1
39 221 6
39 222 7
39 223 5
39 226 7
39 228 8
39 230 10
39 231 8
39 239 10
39 240 2
39 241 9
39 243 2
39 249 4
39 251 7
39 252 5
39 253 8
39 256 8
39 258 7
39 260 9
39 261 6
39 264 10
39 265 8
39 266 6
39 268 10
39 271 4
39 272 9
39 273 9
39 274 3
39 278 3
39 279 10
39 280 2
39 281 8
39 282 9
39 284 4
39 285 4
39 288 1
39 290 4
39 291 6
39 292 2
39 293 5
39 295 2
39 298 9
39 299 2
39 300 9
40 41 7
40 43 4
40 45 9
40 46 5
40 47 4
40 48 9
40 49 7
40 51 3
40 54 8
40 58 4
40 60 2
40 63 3
40 64 2
40 65 6
40 66 3
40 67 5
40 69 9
40 74 4
40 75 6
40 76 2
40 78 5
40 79 5
40 83 7
40 84 6
40 87 1
40 90 7
40 92 8
40 94 2
40 95 3
40 98 9
40 99 3
40 102 1
40 105 9
40 107 9
40 108 9
40 110 9
40 111 6
40 112 6
40 113 9
40 114 8
40 115 2
40 117 1
40 119 2
40 120 7
40 122 8
40 123 5
40 125 4
40 129 10
40 130 1
40 133 5
40 134 8
40 136 6
40 139 8
40 140 5
40 145 9
40 146 3
40 148 4
40 149 3
40 150 6
40 153 5
40 155 4
40 158 9
40 164 10
40 168 2
40 169 1
40 176 7
40 183 5
40 184 5
40 185 7
40 188 8
40 189 4
40 190 4
40 191 8
40 192 4
40 193 3
40 195 7
40 197 5
40 199 10
40 202 3
40 204 8
40 205 9
40 206 4
40 207 5
40 210 8
40 211 2
40 212 3
40 214 3
40 221 7
40 222 5
40 223 1
40 224 2
40 226 8
40 228 2
40 229 7
40 230 9
40 231 6
40 232 9
40 233 10
40 236 10
40 237 1
40 240 7
40 241 3
40 244 9
40 245 1
40 246 5
40 251 5
40 252 9
40 255 8
40 256 6
40 257 7
40 259 5
40 260 7
40 262 6
40 263 9
40 265 6
40 266 1
40 267 2
40 271 3
40 274 8
40 282 10
40 285 9
40 287 4
40 289 3
40 290 3
40 291 2
40 292 7
40 295 3
40 296 5
40 298 7
40 299 3
41 43 10
41 45 9
41 47 9
41 50 2
41 51 7
41 53 4
41 54 4
41 55 8
41 57 10
41 59 9
41 62 1
41 64 8
41 67 2
41 70 8
41 71 5
41 76 2
41 77 9
41 80 7
41 81 1
41 82 4
41 83 3
41 84 4
41 85 6
41 86 3
41 87 9
41 88 4
41 89 4
41 93 2
41 94 2
41 96 9
41 100 10
41 103 8
41 104 5
41 105 4
41 108 6
41 109 4
41 110 9
41 114 4
41 115 10
41 116 1
41 120 2
41 128 3
41 129 8
41 132 9
41 133 9
41 134 5
41 137 2
41 138 2
41 139 8
41 140 8
41 141 4
41 142 7
41 144 7
41 147 10
41 149 6
41 150 5
41 152 3
41 154 7
41 155 6
41 156 10
41 157 1
41 158 3
41 159 3
41 162 3
41 168 10
41 170 8
41 176 5
41 177 6
41 179 4
41 180 3
41 181 4
41 182 5
41 183 5
41 185 5
41 189 6
41 190 3
41 191 3
41 193 8
41 194 1
41 195 6
41 196 5
41 198 7
41 199 10
41 201 9
41 207 6
41 208 6
41 209 10
41 211 8
41 217 3
41 223 2
41 225 9
41 227 1
41 229 1
41 232 1
41 233 5
41 234 4
41 236 9
41 238 5
41 242 9
41 244 2
41 245 5
41 247 7
41 248 2
41 249 7
41 250 8
41 251 9
41 253 9
41 256 4
41 259 10
41 260 3
41 261 2
41 262 4
41 264 1
41 265 2
41 266 4
41 268 6
41 269 3
41 271 5
41 272 9
41 273 10
41 274 7
41 275 6
41 276 3
41 278 10
41 280 10
41 289 10
41 290 3
41 291 10
41 293 2
41 296 6
41 300 10
42 44 2
42 45 6
42 47 2
42 48 1
42 50 8
42 51 9
42 54 2
42 55 4
42 56 10
42 57 2
42 62 3
42 66 7
42 68 8
42 69 5
42 71 7
42 72 7
42 74 2
42 76 2
42 77 1
42 80 3
42 83 5
42 84 3
42 85 7
42 86 6
42 88 8
42 91 6
42 92 8
42 93 4
42 97 10
42 99 7
42 100 5
42 101 10
42 105 7
42 107 3
42 108 5
42 110 1
42 111 3
42 114 8
42 115 6
42 121 9
42 122 6
42 123 7
42 124 3
42 126 6
42 127 8
42 128 5
42 129 9
42 130 5
42 132 10
42 133 6
42 134 2
42 135 6
42 136 3
42 137 4
42 139 10
42 140 3
42 141 10
42 142 6
42 143 3
42 144 6
42 145 1
42 147 10
42 150 8
42 151 3
42 152 9
42 154 5
42 155 3
42 156 5
42 157 3
42 159 4
42 160 5
42 161 6
42 162 6
42 164 4
42 165 10
42 166 2
42 168 1
42 172 9
42 178 8
42 181 9
42 185 10
42 187 7
42 189 6
42 190 7
42 193 3
42 195 2
42 198 7
42 199 2
42 202 1
42 203 10
42 205 5
42 207 5
42 211 10
42 212 4
42 214 2
42 215 4
42 216 3
42 217 10
42 219 3
42 220 5
42 221 8
42 222 4
42 230 9
42 232 7
42 234 6
42 238 7
42 239 6
42 241 10
42 243 5
42 244 9
42 245 6
42 247 5
42 248 7
42 251 2
42 253 7
42 254 4
42 256 6
42 259 8
42 260 2
42 261 9
42 263 2
42 265 1
42 266 3
42 267 7
42 268 10
42 269 8
42 270 2
42 272 5
42 273 10
42 275 1
42 278 10
42 279 10
42 281 1
42 282 3
42 285 1
42 286 1
42 288 2
42 289 9
42 290 6
42 292 10
42 293 1
42 295 8
42 296 5
42 299 6
43 44 5
43 45 9
43 48 4
43 49 10
43 50 6
43 52 7
43 53 7
43 55 9
43 56 1
43 59 4
43 60 8
43 65 5
43 66 4
43 68 6
43 69 9
43 70 5
43 72 6
43 73 3
43 74 8
43 76 3
43 77 7
43 78 6
43 79 5
43 81 4
43 82 10
43 84 1
43 87 4
43 90 4
43 93 4
43 94 1
43 96 8
43 98 3
43 99 6
43 101 5
43 102 1
43 103 2
43 104 8
43 106 6
43 109 10
43 110 1
43 116 7
43 118 2
43 119 6
43 120 2
43 123 8
43 124 5
43 125 10
43 126 10
43 127 5
43 130 10
43 131 2
43 132 4
43 137 1
43 138 8
43 139 7
43 140 8
43 142 3
43 144 7
43 146 7
43 149 2
43 153 6
43 158 10
43 161 1
43 169 7
43 173 3
43 174 8
43 177 2
43 179 9
43 180 5
43 182 7
43 183 9
43 186 9
43 188 1
43 189 2
43 192 9
43 194 5
43 196 8
43 197 9
43 199 5
43 208 1
43 209 7
43 210 9
43 212 6
43 213 10
43 215 1
43 221 4
43 223 6
43 226 8
43 227 8
43 229 9
43 230 7
43 231 10
43 234 5
43 236 8
43 237 7
43 238 1
43 241 7
43 243 5
43 244 3
43 246 3
43 247 9
43 250 10
43 251 9
43 253 8
43 254 1
43 255 6
43 257 7
43 259 6
43 261 5
43 263 7
43 264 4
43 265 1
43 267 10
43 270 9
43 272 4
43 273 9
43 276 2
43 284 10
43 287 8
43 289 7
43 293 6
43 297 6
44 45 2
44 48 6
44 50 3
44 52 10
44 56 1
44 57 8
44 59 7
44 61 1
44 63 3
44 64 5
44 65 8
44 67 2
44 68 9
44 69 4
44 70 1
44 72 8
44 74 4
44 78 5
44 81 10
44 83 1
44 84 4
44 88 5
44 89 5
44 90 8
44 92 8
44 93 5
44 94 5
44 99 6
44 100 6
44 102 9
44 103 10
44 105 3
44 107 6
44 108 2
44 111 9
44 112 4
44 114 3
44 115 8
44 117 5
44 118 1
44 119 7
44 120 8
44 121 10
44 122 9
44 123 4
44 124 9
44 126 10
44 128 3
44 132 6
44 133 6
44 137 10
44 138 6
44 140 9
44 142 10
44 144 5
44 145 4
44 147 6
44 149 1
44 150 9
44 151 3
44 152 7
44 154 4
44 155 5
44 158 10
44 159 3
44 162 4
44 163 7
44 165 7
44 168 4
44 170 4
44 171 5
44 174 4
44 176 8
44 177 1
44 178 9
44 179 1
44 182 2
44 183 6
44 186 1
44 187 3
44 188 9
44 190 8
44 192 10
44 194 7
44 195 1
44 197 2
44 202 3
44 205 9
44 207 7
44 209 7
44 210 9
44 211 3
44 212 9
44 213 9
44 214 5
44 215 6
44 217 8
44 218 10
44 221 10
44 222 10
44 223 5
44 225 2
44 226 4
44 227 10
44 228 6
44 230 5
44 237 10
44 239 1
44 240 7
44 241 3
44 245 7
44 246 7
44 251 5
44 252 3
44 255 2
44 256 5
44 260 3
44 261 9
44 263 7
44 268 3
44 271 4
44 272 2
44 273 8
44 275 9
44 277 10
44 279 5
44 280 1
44 281 10
44 282 10
44 284 7
44 286 9
44 288 6
44 289 5
44 290 1
44 292 3
44 293 9
44 294 8
44 297 3
44 300 4
45 50 10
45 52 4
45 53 9
45 55 3
45 57 2
45 59 2
45 61 1
45 63 1
45 66 3
45 67 5
45 68 7
45 70 6
45 73 5
45 74 2
45 75 5
45 77 7
45 79 2
45 80 2
45 81 10
45 83 9
45 86 2
45 87 6
45 88 4
45 90 5
45 91 2
45 93 8
45 94 1
45 98 7
45 101 3
45 106 2
45 110 2
45 113 10
45 114 4
45 115 5
45 116 10
45 119 2
45 120 10
45 121 2
45 124 7
45 128 10
45 130 1
45 135 10
45 142 8
45 143 10
45 145 2
45 146 7
45 147 5
45 149 6
45 154 7
45 155 9
45 156 3
45 157 4
45 166 1
45 167 2
45 174 8
45 180 1
45 181 9
45 183 3
45 184 8
45 185 7
45 186 4
45 190 6
45 194 8
45 195 7
45 196 3
45 197 10
45 199 2
45 200 10
45 201 4
45 203 1
45 205 3
45 206 6
45 207 5
45 209 10
45 210 7
45 211 9
45 212 4
45 213 1
45 214 9
45 215 8
45 216 5
45 218 2
45 220 1
45 221 5
45 222 5
45 226 1
45 228 2
45 232 1
45 235 5
45 237 8
45 239 1
45 240 2
45 241 8
45 242 4
45 247 4
45 248 1
45 250 8
45 251 7
45 254 3
45 255 10
45 256 6
45 257 7
45 258 7
45 259 10
45 261 10
45 263 10
45 264 8
45 266 9
45 267 7
45 270 5
45 271 8
45 272 6
45 275 8
45 277 1
45 281 3
45 283 9
45 284 9
45 287 5
45 288 10
45 289 3
45 290 6
45 291 8
45 292 8
45 294 9
45 298 5
45 299 1
46 47 9
46 52 5
46 55 6
46 56 1
46 59 5
46 62 1
46 63 6
46 65 9
46 69 3
46 70 2
46 73 9
46 75 7
46 77 7
46 78 6
46 79 1
46 81 1
46 82 9
46 83 7
46 86 5
46 88 9
46 89 5
46 92 6
46 94 8
46 97 1
46 99 9
46 100 3
46 102 1
46 103 7
46 104 4
46 105 8
46 107 6
46 108 10
46 110 7
46 113 2
46 115 1
46 118 8
46 122 7
46 124 5
46 125 7
46 126 4
46 127 2
46 129 6
46 130 5
46 131 7
46 136 9
46 141 10
46 142 2
46 143 5
46 144 9
46 146 2
46 147 9
46 148 8
46 149 8
46 151 5
46 152 7
46 156 10
46 159 4
46 160 6
46 162 4
46 163 6
46 164 4
46 165 1
46 168 5
46 173 1
46 175 3
46 178 4
46 179 5
46 183 3
46 184 10
46 187 10
46 191 7
46 192 4
46 196 8
46 198 3
46 203 1
46 204 5
46 206 7
46 207 8
46 212 1
46 213 4
46 214 1
46 217 8
46 219 10
46 220 4
46 221 3
46 224 3
46 225 8
46 226 5
46 228 2
46 230 7
46 231 6
46 232 4
46 233 8
46 236 4
46 238 4
46 239 3
46 242 2
46 244 6
46 246 3
46 248 7
46 250 10
46 251 1
46 255 4
46 261 8
46 263 9
46 265 7
46 268 4
46 269 2
46 270 3
46 271 2
46 272 8
46 275 9
46 277 9
46 278 6
46 279 9
46 280 4
46 284 2
46 286 8
46 290 10
46 291 7
46 292 1
46 293 8
46 294 6
46 295 10
46 296 5
46 297 1
46 298 7
46 300 3
47 49 7
47 53 6
47 60 2
47 64 5
47 67 2
47 68 9
47 71 3
47 72 5
47 74 3
47 79 6
47 81 7
47 82 4
47 85 7
47 86 4
47 90 5
47 91 5
47 93 3
47 94 3
47 95 4
47 99 8
47 100 2
47 101 6
47 102 9
47 103 2
47 104 9
47 105 3
47 106 8
47 107 2
47 109 6
47 111 1
47 112 7
47 113 10
47 119 8
47 120 8
47 121 2
47 123 6
47 126 10
47 127 2
47 128 3
47 130 10
47 132 2
47 134 10
47 137 4
47 138 6
47 139 8
47 143 1
47 145 10
47 146 9
47 149 6
47 151 1
47 158 2
47 159 7
47 162 1
47 163 7
47 164 5
47 165 2
47 168 8
47 170 9
47 171 2
47 172 2
47 173 4
47 174 7
47 175 5
47 176 3
47 178 8
47 180 3
47 181 2
47 182 4
47 183 1
47 184 8
47 185 5
47 189 6
47 190 4
47 194 10
47 196 3
47 197 7
47 198 2
47 199 4
47 200 9
47 203 2
47 204 10
47 207 1
47 214 4
47 215 9
47 217 10
47 219 6
47 221 7
47 224 1
47 227 2
47 228 3
47 229 1
47 230 5
47 231 4
47 237 4
47 238 3
47 242 1
47 243 8
47 245 5
47 248 4
47 250 10
47 252 2
47 253 9
47 254 1
47 256 2
47 257 4
47 258 10
47 259 2
47 261 10
47 263 3
47 264 8
47 267 4
47 270 5
47 272 10
47 275 2
47 276 9
47 277 4
47 279 1
47 280 8
47 281 6
47 283 8
47 286 5
47 288 1
47 289 8
47 291 1
47 295 10
47 296 3
47 297 9
47 299 6
48 49 8
48 52 3
48 54 8
48 55 8
48 61 9
48 62 4
48 63 9
48 64 2
48 67 4
48 74 9
48 75 1
48 79 9
48 80 4
48 81 6
48 83 6
48 84 3
48 85 7
48 88 1
48 89 4
48 91 1
48 92 8
48 95 1
48 96 10
48 99 6
48 100 7
48 101 4
48 102 7
48 103 8
48 104 6
48 105 5
48 109 9
48 110 1
48 113 1
48 115 6
48 118 9
48 119 1
48 120 7
48 121 9
48 123 7
48 124 6
48 126 5
48 127 10
48 128 3
48 129 5
48 130 1
48 137 7
48 139 4
48 140 4
48 141 6
48 142 9
48 143 4
48 145 5
48 146 10
48 147 10
48 149 3
48 152 6
48 153 6
48 155 5
48 157 5
48 158 1
48 159 1
48 160 6
48 161 10
48 162 8
48 163 2
48 164 1
48 166 5
48 168 5
48 169 5
48 173 2
48 175 2
48 176 10
48 177 1
48 178 10
48 179 10
48 180 9
48 182 7
48 185 4
48 188 10
48 189 8
48 190 10
48 191 5
48 193 1
48 194 9
48 197 2
48 198 4
48 200 8
48 202 6
48 205 6
48 206 7
48 208 4
48 210 1
48 213 1
48 215 3
48 217 1
48 219 4
48 221 4
48 222 7
48 223 10
48 229 4
48 231 4
48 232 6
48 233 1
48 235 2
48 236 10
48 238 1
48 239 6
48 243 10
48 244 6
48 246 10
48 252 7
48 253 7
48 255 2
48 258 5
48 259 6
48 264 2
48 266 4
48 268 2
48 270 1
48 272 6
48 273 9
48 274 7
48 275 2
48 278 4
48 279 2
48 281 10
48 282 8
48 285 1
48 286 4
48 291 4
48 293 2
48 294 10
48 295 5
48 296 1
48 298 5
48 299 2
48 300 2
49 51 1
49 52 9
49 53 8
49 54 8
49 55 10
49 56 7
49 58 2
49 59 8
49 60 1
49 62 9
49 63 1
49 64 10
49 65 5
49 66 9
49 67 5
49 68 9
49 75 7
49 77 4
49 78 4
49 79 1
49 84 7
49 86 10
49 88 5
49 89 4
49 90 2
49 94 3
49 97 10
49 98 3
49 99 5
49 101 9
49 102 9
49 103 8
49 107 10
49 111 1
49 112 1
49 113 9
49 114 6
49 115 8
49 117 7
49 118 8
49 122 8
49 123 1
49 124 6
49 125 10
49 126 5
49 127 3
49 129 1
49 130 2
49 134 4
49 135 3
49 136 8
49 138 7
49 140 5
49 141 9
49 142 2
49 147 8
49 149 2
49 150 6
49 152 7
49 153 9
49 155 6
49 157 7
49 160 2
49 161 4
49 162 6
49 163 9
49 166 7
49 171 10
49 173 7
49 174 10
49 178 9
49 179 7
49 181 3
49 182 5
49 184 7
49 186 5
49 187 6
49 189 10
49 190 2
49 193 8
49 197 3
49 199 5
49 200 3
49 201 3
49 203 4
49 205 2
49 209 1
49 211 3
49 212 8
49 213 10
49 215 6
49 216 6
49 219 1
49 221 6
49 225 10
49 227 4
49 228 10
49 231 8
49 233 4
49 234 2
49 236 6
49 237 9
49 238 7
49 245 1
49 246 3
49 250 3
49 251 7
49 252 10
49 253 6
49 254 1
49 255 2
49 257 8
49 258 7
49 261 7
49 262 1
49 263 1
49 264 6
49 265 8
49 266 3
49 269 2
49 270 6
49 271 7
49 273 2
49 274 4
49 276 5
49 284 4
49 285 10
49 286 10
49 287 9
49 289 10
49 293 7
49 295 5
49 296 4
49 299 4
50 51 3
50 53 5
50 54 10
50 57 9
50 61 4
50 62 6
50 64 8
50 66 1
50 67 1
50 68 7
50 70 8
50 72 3
50 73 6
50 74 2
50 76 6
50 79 6
50 80 6
50 81 9
50 82 1
50 83 10
50 86 4
50 89 7
50 90 10
50 91 3
50 93 2
50 94 3
50 95 1
50 96 4
50 97 8
50 98 10
50 99 1
50 100 4
50 101 7
50 105 2
50 106 8
50 110 3
50 111 1
50 114 8
50 117 7
50 120 2
50 121 9
50 122 1
50 123 3
50 124 3
50 125 7
50 129 3
50 131 9
50 132 2
50 133 6
50 134 9
50 136 3
50 138 8
50 140 5
50 142 5
50 145 9
50 147 8
50 152 8
50 153 7
50 156 8
50 158 2
50 160 6
50 163 5
50 165 8
50 167 3
50 170 6
50 171 7
50 172 9
50 173 7
50 174 6
50 179 5
50 181 7
50 184 6
50 186 5
50 189 10
50 196 9
50 198 10
50 200 7
50 202 5
50 208 6
50 209 1
50 211 3
50 213 4
50 217 3
50 218 2
50 222 5
50 223 4
50 224 2
50 225 9
50 229 3
50 231 5
50 236 8
50 237 3
50 240 10
50 241 3
50 242 9
50 243 7
50 245 6
50 250 5
50 253 7
50 254 1
50 258 10
50 260 6
50 265 4
50 267 4
50 271 1
50 272 6
50 275 1
50 277 5
50 279 9
50 281 6
50 282 1
50 283 10
50 285 7
50 286 10
50 290 6
50 291 10
50 293 1
50 296 10
50 297 2
50 298 6
50 300 7
51 54 7
51 56 2
51 58 4
51 59 10
51 60 3
51 61 10
51 66 5
51 68 3
51 69 1
51 71 8
51 72 7
51 73 4
51 74 2
51 78 3
51 79 3
51 81 2
51 82 7
51 83 7
51 84 7
51 85 8
51 87 2
51 88 6
51 91 6
51 93 8
51 94 8
51 96 6
51 97 6
51 104 7
51 105 3
51 107 9
51 108 9
51 111 2
51 113 3
51 118 3
51 119 2
51 126 3
51 127 6
51 128 7
51 129 9
51 130 5
51 135 7
51 138 1
51 139 5
51 140 6
51 142 1
51 144 6
51 145 7
51 147 7
51 148 1
51 149 1
51 150 10
51 155 1
51 159 2
51 162 2
51 163 10
51 164 9
51 165 10
51 169 4
51 171 8
51 172 8
51 181 4
51 182 9
51 183 9
51 185 6
51 187 3
51 188 2
51 189 7
51 190 2
51 192 10
51 197 10
51 200 3
51 201 10
51 203 2
51 204 3
51 205 1
51 206 7
51 209 2
51 210 3
51 215 8
51 217 1
51 218 5
51 220 6
51 221 5
51 222 5
51 224 10
51 226 7
51 229 10
51 230 2
51 232 8
51 235 3
51 236 8
51 237 9
51 241 5
51 245 2
51 247 1
51 249 2
51 250 4
51 252 5
51 253 5
51 255 5
51 259 8
51 262 10
51 263 8
51 264 2
51 265 8
51 266 4
51 267 10
51 272 8
51 278 9
51 282 6
51 283 7
51 284 3
51 285 1
51 290 2
51 293 4
51 294 8
51 296 3
51 299 10
51 300 2
52 53 9
52 56 9
52 58 3
52 59 7
52 61 10
52 63 3
52 65 7
52 68 5
52 69 8
52 71 9
52 72 8
52 73 10
52 74 4
52 76 5
52 77 5
52 79 9
52 80 5
52 81 10
52 84 2
52 87 2
52 88 5
52 89 5
52 90 7
52 91 9
52 92 4
52 94 9
52 95 8
52 96 7
52 97 9
52 99 2
52 102 3
52 104 5
52 105 7
52 108 4
52 109 3
52 110 9
52 113 10
52 115 1
52 116 6
52 118 8
52 119 10
52 120 10
52 122 1
52 126 8
52 128 2
52 129 4
52 130 5
52 131 8
52 132 9
52 134 5
52 138 3
52 139 7
52 143 1
52 144 9
52 145 10
52 147 10
52 152 9
52 153 1
52 154 9
52 155 5
52 156 9
52 158 7
52 159 2
52 162 10
52 163 5
52 164 8
52 170 8
52 172 9
52 173 1
52 176 10
52 178 10
52 179 4
52 181 6
52 185 1
52 186 5
52 187 1
52 188 7
52 190 2
52 191 3
52 193 8
52 194 5
52 195 4
52 196 5
52 198 10
52 200 2
52 203 4
52 206 10
52 207 1
52 208 8
52 210 3
52 211 7
52 213 9
52 216 10
52 221 5
52 222 10
52 223 7
52 224 6
52 225 10
52 226 9
52 229 10
52 230 10
52 231 1
52 234 8
52 236 9
52 238 7
52 239 3
52 243 3
52 244 4
52 245 1
52 246 4
52 248 3
52 251 10
52 253 4
52 255 6
52 262 1
52 263 9
52 264 9
52 266 3
52 268 1
52 269 1
52 272 8
52 273 7
52 279 4
52 284 1
52 285 10
52 287 5
52 288 8
52 289 6
52 290 9
52 291 6
52 293 6
52 294 9
52 295 6
52 296 1
52 297 9
52 298 7
52 300 4
53 56 9
53 58 10
53 59 5
53 61 6
53 62 9
53 67 1
53 71 8
53 74 2
53 75 5
53 76 9
53 78 3
53 81 10
53 82 3
53 85 8
53 88 3
53 93 4
53 94 10
53 97 7
53 105 3
53 111 10
53 112 2
53 113 10
53 118 2
53 119 10
53 120 3
53 123 3
53 124 4
53 125 10
53 127 10
53 128 6
53 129 6
53 133 4
53 134 3
53 135 4
53 137 5
53 138 6
53 139 5
53 140 10
53 141 9
53 145 9
53 146 8
53 147 10
53 149 8
53 153 5
53 156 1
53 158 3
53 159 2
53 162 5
53 163 3
53 165 3
53 166 8
53 167 7
53 168 6
53 170 4
53 171 3
53 173 8
53 176 2
53 177 4
53 179 6
53 183 1
53 185 8
53 186 3
53 188 10
53 189 8
53 194 8
53 204 7
53 207 6
53 208 4
53 210 4
53 211 2
53 213 7
53 214 6
53 215 6
53 216 9
53 217 6
53 219 6
53 221 10
53 222 2
53 224 6
53 225 3
53 227 3
53 231 2
53 232 7
53 236 8
53 237 8
53 239 6
53 241 6
53 242 1
53 243 8
53 246 6
53 247 7
53 249 6
53 250 5
53 254 4
53 256 4
53 262 7
53 265 8
53 266 2
53 269 9
53 272 4
53 273 4
53 275 6
53 277 5
53 278 2
53 279 3
53 281 3
53 283 8
53 284 6
53 286 2
53 287 7
53 288 4
53 290 5
53 291 5
53 294 2
53 296 2
53 298 2
53 299 4
54 57 8
54 58 8
54 59 6
54 62 4
54 67 5
54 68 4
54 69 6
54 71 9
54 79 3
54 81 2
54 82 8
54 83 7
54 84 6
54 85 7
54 86 8
54 89 3
54 90 10
54 92 8
54 93 9
54 94 1
54 96 4
54 99 3
54 102 6
54 103 7
54 104 5
54 105 5
54 106 7
54 115 7
54 117 2
54 119 1
54 120 9
54 122 6
54 124 8
54 125 9
54 127 4
54 129 9
54 131 9
54 134 2
54 136 6
54 138 7
54 144 6
54 145 10
54 146 6
54 147 9
54 148 1
54 149 9
54 154 1
54 156 9
54 159 1
54 160 5
54 163 10
54 165 2
54 167 8
54 168 3
54 169 4
54 171 3
54 173 8
54 174 9
54 175 4
54 176 9
54 180 7
54 181 4
54 182 4
54 185 9
54 187 4
54 188 4
54 189 1
54 191 2
54 193 3
54 199 9
54 200 3
54 206 7
54 208 7
54 210 10
54 212 5
54 213 7
54 214 4
54 217 7
54 218 8
54 219 6
54 220 9
54 221 2
54 222 1
54 224 8
54 226 6
54 228 4
54 231 1
54 232 5
54 234 4
54 236 10
54 240 7
54 241 10
54 244 9
54 246 3
54 247 3
54 248 6
54 250 9
54 252 9
54 254 1
54 255 7
54 256 4
54 258 2
54 260 2
54 262 5
54 269 10
54 271 8
54 273 8
54 277 7
54 279 4
54 280 3
54 281 3
54 282 5
54 283 3
54 284 9
54 286 5
54 287 8
54 288 5
54 289 7
54 294 3
54 300 10
55 57 1
55 58 2
55 59 6
55 60 7
55 64 10
55 65 2
55 66 6
55 68 2
55 69 8
55 70 10
55 71 6
55 72 9
55 73 3
55 74 2
55 77 8
55 79 3
55 85 2
55 86 6
55 87 1
55 89 2
55 90 8
55 92 5
55 96 5
55 97 2
55 98 8
55 99 6
55 100 8
55 101 6
55 104 10
55 106 1
55 107 4
55 108 8
55 109 7
55 110 7
55 112 1
55 113 1
55 114 4
55 116 1
55 118 8
55 119 6
55 120 9
55 122 10
55 123 7
55 125 9
55 126 6
55 131 8
55 135 4
55 137 2
55 138 7
55 139 7
55 140 10
55 142 3
55 145 1
55 146 5
55 147 3
55 150 1
55 151 2
55 152 7
55 155 8
55 156 7
55 158 4
55 159 1
55 166 1
55 172 4
55 173 1
55 178 7
55 179 4
55 180 5
55 181 5
55 183 10
55 192 2
55 197 6
55 202 5
55 209 5
55 211 9
55 212 5
55 213 2
55 216 9
55 218 1
55 222 7
55 223 3
55 227 2
55 230 3
55 234 8
55 236 2
55 238 3
55 241 10
55 242 1
55 243 6
55 244 4
55 248 10
55 250 1
55 251 5
55 252 6
55 253 6
55 255 7
55 258 1
55 262 7
55 263 7
55 265 9
55 269 1
55 273 9
55 274 8
55 277 5
55 278 6
55 280 9
55 285 8
55 286 1
55 287 8
55 290 6
55 291 1
55 292 8
55 293 1
55 294 4
55 295 5
55 297 8
55 298 5
55 299 7
56 57 2
56 59 7
56 63 4
56 65 10
56 66 4
56 67 6
56 68 4
56 69 4
56 70 1
56 71 1
56 79 9
56 80 2
56 82 5
56 83 7
56 84 5
56 86 4
56 87 10
56 91 3
56 94 2
56 96 4
56 98 4
56 100 5
56 104 8
56 107 4
56 108 6
56 109 1
56 110 4
56 112 2
56 113 10
56 116 2
56 117 3
56 118 6
56 119 1
56 120 7
56 121 3
56 124 10
56 127 10
56 130 9
56 131 3
56 132 9
56 136 4
56 139 10
56 140 2
56 141 3
56 142 7
56 143 4
56 144 4
56 148 3
56 149 1
56 150 1
56 151 9
56 153 9
56 154 4
56 158 8
56 161 7
56 163 5
56 164 4
56 166 10
56 172 2
56 173 1
56 175 2
56 176 9
56 179 3
56 180 10
56 181 6
56 182 8
56 185 5
56 186 4
56 187 1
56 191 5
56 193 6
56 195 1
56 198 3
56 203 8
56 204 1
56 208 4
56 209 6
56 215 4
56 216 2
56 218 4
56 219 4
56 221 2
56 222 3
56 227 10
56 229 2
56 232 5
56 233 10
56 235 10
56 236 9
56 237 3
56 239 8
56 246 4
56 247 4
56 250 3
56 251 3
56 252 3
56 253 8
56 254 1
56 255 7
56 258 1
56 271 4
56 272 1
56 273 3
56 275 7
56 281 2
56 282 4
56 285 10
56 287 7
56 292 5
56 294 6
56 295 8
56 296 10
56 297 2
56 298 2
56 299 5
57 58 1
57 61 7
57 62 1
57 63 2
57 64 7
57 69 7
57 71 5
57 73 1
57 75 6
57 76 2
57 78 4
57 84 5
57 85 6
57 86 5
57 88 7
57 89 4
57 90 7
57 92 10
57 93 7
57 94 7
57 95 2
57 97 9
57 98 2
57 99 7
57 100 10
57 102 10
57 103 10
57 104 1
57 105 8
57 106 1
57 107 3
57 108 6
57 110 6
57 111 7
57 114 4
57 117 2
57 118 3
57 120 7
57 124 4
57 125 9
57 126 5
57 129 1
57 130 8
57 131 7
57 134 2
57 136 7
57 137 10
57 140 6
57 141 9
57 142 3
57 143 5
57 145 8
57 147 5
57 148 5
57 149 8
57 150 1
57 151 8
57 152 9
57 153 3
57 157 9
57 160 4
57 161 3
57 163 4
57 164 4
57 166 5
57 167 10
57 170 7
57 171 6
57 173 10
57 174 8
57 175 2
57 176 1
57 177 7
57 178 2
57 179 9
57 182 1
57 183 5
57 184 9
57 185 6
57 187 2
57 190 8
57 193 4
57 194 10
57 195 3
57 197 9
57 198 10
57 202 9
57 204 1
57 205 3
57 207 1
57 208 10
57 210 4
57 213 6
57 217 7
57 218 5
57 219 3
57 220 2
57 222 5
57 224 7
57 225 3
57 226 8
57 228 6
57 235 1
57 239 3
57 242 6
57 244 2
57 248 2
57 249 1
57 252 2
57 253 4
57 254 2
57 257 6
57 258 8
57 260 3
57 261 4
57 262 4
57 263 7
57 264 9
57 265 10
57 267 3
57 268 8
57 270 2
57 274 2
57 275 3
57 277 5
57 278 6
57 279 7
57 282 2
57 283 4
57 286 5
57 288 9
57 289 4
57 291 4
57 293 1
57 298 4
57 299 10
58 59 2
58 60 8
58 61 7
58 63 1
58 64 9
58 67 1
58 68 8
58 69 8
58 70 5
58 72 6
58 74 2
58 75 9
58 81 3
58 83 2
58 84 3
58 85 10
58 87 10
58 89 4
58 97 8
58 98 5
58 99 5
58 100 8
58 104 2
58 105 10
58 106 7
58 107 5
58 109 4
58 110 6
58 111 7
58 112 10
58 113 2
58 115 8
58 117 6
58 123 5
58 124 1
58 126 5
58 129 10
58 132 1
58 134 8
58 136 6
58 137 7
58 138 10
58 139 7
58 141 3
58 142 9
58 143 1
58 144 1
58 145 1
58 146 7
58 150 5
58 151 6
58 153 8
58 155 8
58 156 4
58 157 3
58 158 3
58 160 1
58 162 10
58 164 9
58 165 2
58 166 5
58 167 5
58 168 1
58 172 8
58 173 1
58 174 6
58 175 6
58 182 10
58 188 9
58 189 8
58 192 2
58 194 5
58 196 10
58 201 1
58 204 3
58 205 3
58 208 9
58 209 2
58 210 4
58 211 10
58 212 6
58 213 3
58 215 6
58 217 7
58 219 7
58 220 2
58 222 4
58 225 2
58 226 10
58 227 6
58 228 8
58 234 1
58 235 4
58 238 4
58 242 10
58 243 9
58 244 9
58 245 9
58 246 10
58 250 2
58 253 1
58 256 9
58 259 2
58 262 9
58 263 5
58 264 9
58 266 1
58 268 8
58 270 9
58 273 4
58 274 9
58 276 6
58 279 3
58 281 7
58 282 9
58 284 1
58 285 10
58 287 7
58 291 1
58 292 10
58 297 3
58 300 10
59 61 5
59 63 2
59 64 2
59 69 7
59 70 2
59 71 10
59 72 3
59 73 9
59 78 2
59 79 10
59 84 1
59 87 4
59 89 6
59 90 8
59 95 5
59 96 6
59 97 1
59 98 7
59 100 3
59 101 6
59 102 4
59 103 8
59 105 10
59 108 2
59 111 10
59 112 9
59 114 7
59 115 4
59 116 2
59 117 8
59 118 1
59 119 9
59 120 3
59 123 5
59 125 10
59 130 9
59 131 2
59 134 3
59 135 1
59 136 6
59 137 3
59 140 1
59 143 8
59 144 7
59 145 5
59 147 2
59 149 5
59 151 2
59 156 2
59 157 8
59 159 4
59 160 8
59 161 5
59 166 2
59 170 9
59 172 7
59 173 4
59 175 10
59 176 5
59 177 5
59 178 2
59 179 4
59 180 4
59 181 3
59 182 6
59 185 4
59 186 6
59 188 10
59 189 5
59 190 5
59 191 4
59 192 8
59 194 2
59 197 5
59 199 7
59 202 2
59 203 7
59 204 10
59 205 1
59 206 7
59 208 4
59 209 6
59 210 10
59 211 9
59 212 6
59 213 9
59 214 9
59 215 6
59 216 5
59 217 10
59 221 8
59 223 8
59 225 2
59 227 8
59 229 7
59 230 4
59 232 10
59 236 1
59 238 10
59 240 10
59 241 4
59 243 10
59 244 10
59 246 2
59 247 9
59 248 10
59 249 1
59 250 2
59 251 9
59 252 5
59 253 1
59 254 6
59 256 7
59 257 10
59 260 2
59 262 8
59 263 5
59 264 5
59 266 3
59 267 10
59 269 9
59 271 3
59 272 5
59 273 10
59 274 5
59 276 5
59 281 8
59 282 8
59 284 7
59 293 4
59 295 1
59 296 2
59 298 4
59 300 5
60 64 7
60 66 8
60 67 2
60 69 9
60 70 7
60 71 4
60 74 10
60 75 9
60 76 3
60 79 9
60 81 6
60 88 2
60 89 2
60 91 2
60 96 7
60 97 7
60 98 3
60 102 5
60 106 1
60 108 1
60 113 3
60 115 5
60 116 9
60 118 7
60 120 6
60 122 4
60 123 8
60 124 6
60 125 10
60 126 8
60 131 9
60 132 1
60 134 2
60 138 1
60 139 6
60 144 2
60 145 5
60 147 3
60 148 7
60 149 5
60 150 10
60 151 2
60 154 10
60 156 2
60 157 6
60 158 2
60 160 6
60 162 4
60 165 2
60 166 8
60 167 6
60 171 2
60 172 7
60 174 6
60 175 3
60 178 4
60 180 9
60 184 5
60 187 1
60 188 1
60 193 8
60 197 2
60 200 6
60 202 3
60 203 2
60 204 7
60 205 1
60 211 1
60 213 10
60 216 1
60 218 8
60 219 1
60 220 3
60 224 8
60 225 1
60 226 8
60 230 8
60 234 8
60 235 5
60 236 1
60 237 10
60 240 7
60 243 7
60 244 5
60 245 6
60 246 4
60 247 1
60 248 6
60 250 10
60 254 8
60 255 10
60 257 3
60 258 3
60 260 5
60 262 9
60 263 9
60 266 5
60 268 3
60 269 7
60 273 4
60 274 1
60 275 4
60 277 9
60 278 6
60 279 7
60 281 5
60 284 7
60 285 6
60 287 9
60 288 10
60 289 3
60 290 5
60 293 1
60 296 1
60 298 9
61 62 6
61 63 1
61 64 10
61 65 5
61 66 7
61 67 9
61 68 10
61 71 3
61 72 7
61 73 8
61 76 9
61 78 9
61 81 5
61 83 5
61 84 6
61 87 6
61 88 6
61 91 9
61 93 6
61 94 1
61 96 3
61 97 4
61 98 2
61 100 1
61 101 7
61 102 1
61 106 3
61 107 6
61 108 1
61 110 8
61 116 3
61 117 3
61 118 3
61 121 6
61 122 5
61 123 2
61 124 7
61 125 4
61 128 4
61 129 6
61 130 10
61 132 2
61 133 3
61 135 9
61 136 7
61 137 1
61 138 1
61 141 8
61 142 4
61 144 1
61 146 1
61 148 6
61 149 3
61 150 4
61 152 9
61 155 5
61 156 10
61 159 7
61 161 4
61 162 8
61 163 5
61 167 8
61 170 2
61 171 4
61 172 2
61 174 6
61 175 5
61 176 6
61 177 4
61 179 7
61 183 6
61 184 1
61 185 7
61 186 6
61 187 5
61 190 3
61 194 7
61 195 2
61 196 4
61 199 1
61 202 9
61 204 6
61 205 5
61 207 8
61 208 8
61 209 6
61 210 4
61 211 2
61 212 7
61 213 7
61 215 9
61 216 6
61 218 4
61 220 2
61 221 6
61 224 2
61 228 6
61 229 7
61 230 3
61 231 6
61 233 4
61 234 10
61 237 10
61 238 9
61 241 10
61 242 8
61 243 6
61 247 8
61 248 8
61 249 10
61 253 2
61 254 7
61 259 7
61 260 4
61 262 1
61 263 10
61 269 5
61 272 1
61 273 2
61 275 7
61 276 6
61 279 2
61 280 4
61 281 4
61 282 3
61 283 10
61 285 7
61 292 3
61 299 7
61 300 5
62 65 1
62 66 2
62 68 7
62 69 1
62 70 5
62 72 8
62 73 7
62 77 3
62 83 4
62 84 3
62 86 6
62 88 5
62 91 2
62 92 7
62 93 3
62 96 6
62 97 5
62 98 1
62 102 4
62 106 6
62 107 4
62 108 5
62 113 5
62 114 10
62 115 9
62 121 2
62 123 6
62 124 8
62 125 9
62 127 2
62 129 3
62 131 9
62 133 5
62 136 9
62 137 7
62 143 7
62 145 3
62 152 10
62 153 1
62 155 7
62 157 10
62 158 10
62 163 9
62 164 5
62 167 5
62 168 3
62 169 1
62 170 6
62 172 9
62 174 8
62 175 4
62 177 9
62 178 9
62 181 4
62 186 7
62 192 1
62 194 9
62 200 5
62 202 2
62 204 4
62 207 2
62 209 6
62 210 2
62 211 7
62 212 3
62 215 10
62 216 7
62 221 1
62 224 7
62 227 10
62 228 4
62 229 6
62 230 9
62 234 6
62 236 1
62 239 2
62 240 8
62 241 7
62 242 7
62 244 3
62 246 5
62 247 7
62 248 6
62 250 4
62 252 9
62 253 9
62 254 1
62 256 2
62 258 1
62 259 9
62 260 1
62 263 2
62 265 1
62 266 4
62 268 10
62 276 4
62 278 5
62 279 4
62 281 1
62 283 5
62 285 5
62 286 3
62 287 8
62 288 2
62 289 8
62 290 6
62 291 8
62 292 2
62 295 8
62 299 6
63 64 5
63 65 3
63 66 6
63 68 10
63 70 9
63 71 3
63 72 10
63 73 8
63 74 10
63 75 8
63 76 2
63 78 6
63 80 7
63 81 1
63 85 2
63 86 2
63 88 8
63 89 3
63 90 1
63 95 6
63 99 8
63 102 2
63 103 4
63 105 7
63 107 8
63 108 7
63 110 8
63 111 10
63 115 4
63 118 3
63 119 6
63 120 10
63 121 6
63 123 5
63 124 5
63 126 6
63 128 9
63 136 4
63 139 1
63 141 6
63 143 5
63 145 4
63 148 2
63 151 4
63 152 10
63 153 5
63 154 3
63 155 6
63 156 1
63 158 4
63 159 6
63 160 6
63 162 1
63 164 9
63 166 3
63 167 9
63 168 5
63 169 10
63 170 7
63 171 8
63 173 9
63 174 9
63 175 7
63 177 6
63 178 7
63 183 2
63 185 8
63 188 1
63 191 9
63 193 5
63 196 2
63 197 10
63 198 8
63 199 2
63 200 8
63 201 2
63 203 10
63 204 2
63 208 6
63 209 4
63 210 8
63 211 1
63 212 2
63 213 6
63 214 10
63 215 9
63 218 3
63 219 9
63 220 5
63 224 7
63 225 8
63 227 4
63 228 2
63 229 3
63 231 3
63 232 1
63 233 6
63 234 2
63 236 1
63 237 5
63 239 6
63 240 8
63 242 10
63 247 7
63 249 3
63 250 5
63 254 3
63 258 8
63 259 6
63 262 3
63 263 5
63 264 8
63 265 9
63 267 3
63 268 6
63 269 9
63 272 8
63 274 1
63 279 10
63 280 1
63 282 8
63 283 8
63 284 1
63 285 5
63 291 2
63 293 5
63 295 2
64 67 5
64 68 2
64 73 10
64 76 9
64 78 7
64 81 5
64 85 10
64 89 8
64 90 7
64 92 6
64 94 4
64 96 5
64 98 9
64 101 4
64 103 8
64 105 2
64 107 2
64 110 4
64 114 6
64 116 8
64 117 9
64 119 2
64 120 10
64 122 10
64 123 10
64 125 8
64 129 2
64 132 8
64 133 9
64 135 1
64 138 9
64 139 6
64 140 9
64 145 7
64 146 5
64 147 4
64 149 4
64 151 1
64 155 10
64 162 10
64 163 10
64 164 8
64 166 5
64 167 4
64 168 7
64 169 3
64 170 8
64 173 6
64 174 6
64 176 2
64 177 1
64 178 2
64 179 1
64 180 1
64 182 10
64 184 4
64 185 7
64 187 2
64 188 10
64 189 7
64 190 2
64 191 1
64 192 5
64 193 3
64 194 1
64 195 8
64 196 7
64 197 2
64 203 4
64 205 5
64 207 5
64 209 2
64 213 4
64 214 9
64 215 2
64 217 9
64 218 8
64 220 2
64 221 4
64 224 9
64 226 1
64 227 6
64 230 8
64 231 9
64 232 4
64 233 9
64 234 8
64 235 2
64 236 5
64 237 7
64 238 4
64 239 10
64 242 2
64 244 10
64 246 9
64 247 10
64 250 8
64 251 1
64 254 3
64 257 3
64 259 8
64 260 10
64 261 3
64 263 2
64 264 5
64 269 2
64 271 7
64 273 4
64 274 1
64 275 5
64 279 8
64 280 6
64 281 8
64 283 10
64 285 10
64 286 1
64 287 4
64 288 5
64 290 7
65 66 4
65 67 7
65 72 8
65 76 2
65 77 9
65 78 2
65 79 3
65 81 3
65 82 4
65 84 2
65 85 9
65 90 6
65 95 1
65 97 2
65 103 2
65 109 2
65 111 10
65 112 5
65 114 8
65 117 1
65 124 7
65 128 2
65 132 6
65 133 10
65 137 4
65 138 2
65 142 8
65 143 7
65 147 5
65 148 7
65 149 7
65 150 2
65 155 5
65 156 1
65 157 4
65 162 2
65 163 6
65 165 4
65 169 4
65 170 8
65 172 4
65 173 6
65 174 7
65 175 2
65 177 8
65 180 3
65 183 5
65 189 10
65 191 4
65 192 1
65 195 3
65 196 6
65 199 8
65 203 2
65 205 1
65 207 3
65 208 8
65 209 7
65 211 4
65 213 10
65 214 7
65 215 5
65 216 1
65 217 10
65 220 5
65 225 7
65 226 8
65 228 3
65 229 7
65 231 6
65 232 8
65 235 3
65 236 3
65 240 4
65 242 4
65 243 6
65 244 2
65 246 8
65 247 6
65 248 6
65 249 8
65 251 4
65 258 10
65 259 5
65 260 3
65 261 4
65 262 6
65 263 5
65 267 3
65 268 2
65 269 2
65 270 8
65 273 3
65 274 1
65 275 2
65 277 8
65 282 4
65 284 5
65 285 5
65 288 10
65 291 8
66 67 5
66 69 5
66 71 10
66 72 6
66 77 4
66 78 2
66 79 8
66 81 8
66 83 9
66 85 8
66 86 10
66 87 7
66 88 4
66 90 7
66 92 5
66 93 4
66 98 8
66 100 6
66 102 5
66 103 3
66 104 10
66 105 7
66 106 10
66 107 6
66 108 10
66 110 6
66 111 4
66 112 7
66 113 4
66 115 5
66 117 5
66 119 7
66 120 10
66 121 6
66 122 2
66 123 7
66 126 3
66 127 4
66 128 8
66 129 3
66 130 10
66 134 6
66 135 6
66 136 7
66 137 5
66 138 1
66 139 5
66 140 7
66 142 2
66 143 3
66 145 7
66 151 6
66 152 5
66 155 9
66 156 3
66 158 3
66 161 9
66 163 6
66 164 3
66 167 8
66 168 1
66 172 3
66 174 9
66 175 1
66 177 3
66 178 4
66 180 9
66 181 2
66 182 4
66 188 3
66 193 9
66 196 5
66 198 10
66 203 9
66 204 4
66 207 1
66 209 5
66 211 7
66 212 7
66 213 8
66 214 8
66 219 8
66 220 4
66 221 2
66 224 9
66 225 4
66 226 1
66 231 7
66 234 7
66 237 3
66 238 8
66 239 5
66 240 2
66 242 5
66 245 7
66 248 2
66 253 1
66 254 3
66 255 1
66 257 2
66 259 9
66 261 7
66 262 3
66 263 4
66 265 10
66 267 10
66 268 8
66 269 1
66 270 5
66 272 6
66 275 7
66 276 10
66 281 8
66 283 9
66 284 10
66 286 4
66 288 4
66 290 9
66 291 1
66 293 9
66 294 9
66 296 2
66 298 1
66 299 7
66 300 6
67 68 3
67 70 7
67 71 6
67 78 10
67 79 1
67 81 7
67 82 10
67 83 1
67 85 5
67 86 2
67 87 3
67 90 6
67 92 7
67 93 1
67 95 10
67 97 8
67 99 4
67 103 5
67 104 2
67 106 8
67 107 10
67 109 7
67 110 3
67 112 7
67 116 4
67 118 7
67 122 3
67 123 9
67 124 4
67 125 8
67 127 1
67 129 2
67 131 7
67 132 5
67 133 8
67 138 5
67 139 4
67 140 9
67 143 1
67 144 8
67 145 1
67 146 2
67 147 5
67 148 6
67 149 9
67 152 4
67 157 3
67 158 9
67 159 3
67 163 1
67 164 9
67 165 4
67 167 7
67 169 10
67 170 9
67 172 5
67 174 5
67 175 6
67 176 6
67 178 6
67 185 10
67 186 8
67 189 4
67 192 4
67 193 8
67 195 2
67 197 6
67 198 10
67 199 3
67 201 3
67 204 5
67 205 3
67 208 8
67 209 1
67 211 1
67 212 7
67 213 10
67 215 9
67 217 6
67 218 1
67 220 2
67 221 9
67 222 1
67 223 3
67 226 2
67 228 2
67 229 9
67 232 10
67 237 5
67 238 8
67 239 10
67 240 7
67 241 1
67 242 2
67 244 8
67 247 3
67 248 7
67 250 4
67 251 8
67 253 7
67 254 3
67 256 9
67 259 7
67 264 8
67 266 7
67 267 2
67 271 7
67 272 7
67 276 5
67 279 4
67 281 1
67 283 8
67 284 7
67 285 1
67 286 10
67 287 2
67 288 4
67 290 1
67 291 4
67 292 3
67 293 9
67 294 8
67 295 7
67 298 5
67 300 9
68 69 9
68 70 8
68 71 1
68 72 4
68 74 1
68 76 3
68 77 2
68 78 9
68 79 5
68 80 5
68 86 6
68 88 8
68 90 5
68 91 1
68 92 6
68 93 6
68 94 1
68 96 3
68 99 5
68 101 4
68 102 7
68 103 6
68 105 7
68 109 5
68 111 4
68 112 6
68 114 5
68 115 9
68 116 8
68 117 7
68 118 10
68 119 4
68 121 8
68 122 3
68 123 3
68 124 8
68 126 3
68 127 6
68 131 5
68 132 3
68 134 1
68 135 1
68 136 1
68 139 9
68 141 3
68 143 5
68 145 1
68 146 6
68 147 9
68 149 5
68 155 2
68 157 9
68 159 2
68 160 3
68 163 8
68 164 3
68 165 9
68 166 10
68 169 5
68 170 10
68 171 5
68 176 10
68 177 6
68 181 8
68 183 5
68 184 2
68 185 2
68 186 2
68 188 7
68 190 2
68 194 2
68 197 6
68 200 7
68 204 9
68 207 3
68 209 4
68 212 8
68 213 6
68 214 9
68 215 4
68 216 7
68 217 6
68 218 3
68 220 5
68 221 2
68 222 3
68 225 7
68 227 3
68 228 1
68 230 4
68 233 3
68 234 5
68 236 1
68 238 1
68 239 4
68 240 7
68 241 4
68 244 3
68 245 6
68 255 4
68 258 4
68 259 6
68 261 7
68 265 1
68 266 4
68 267 3
68 269 8
68 270 9
68 271 9
68 273 6
68 274 10
68 276 7
68 277 7
68 279 5
68 280 10
68 281 4
68 283 3
68 285 1
68 287 10
68 292 6
68 295 3
68 297 7
68 298 6
68 300 7
69 70 3
69 71 1
69 72 10
69 79 4
69 82 6
69 87 10
69 89 7
69 90 7
69 91 8
69 94 8
69 95 7
69 96 7
69 98 4
69 99 10
69 105 9
69 106 3
69 107 3
69 110 4
69 111 8
69 112 8
69 114 10
69 115 2
69 116 6
69 119 10
69 120 7
69 122 3
69 123 4
69 124 7
69 126 7
69 133 7
69 134 6
69 135 5
69 136 9
69 137 2
69 143 3
69 144 1
69 145 8
69 147 6
69 149 8
69 152 3
69 154 7
69 155 8
69 156 5
69 157 8
69 158 6
69 162 9
69 164 1
69 166 1
69 169 5
69 170 8
69 175 3
69 176 5
69 177 10
69 178 7
69 180 6
69 181 8
69 182 3
69 184 9
69 185 2
69 186 8
69 189 3
69 190 5
69 191 7
69 192 5
69 197 7
69 198 6
69 199 6
69 202 8
69 204 6
69 207 5
69 208 7
69 216 8
69 217 2
69 218 5
69 219 5
69 223 6
69 224 10
69 229 9
69 231 7
69 232 9
69 235 1
69 237 2
69 242 5
69 249 5
69 251 2
69 252 1
69 253 4
69 255 2
69 256 9
69 257 3
69 259 8
69 261 7
69 265 9
69 266 1
69 267 1
69 271 7
69 273 5
69 275 8
69 276 9
69 277 5
69 280 7
69 281 7
69 286 5
69 287 6
69 293 7
69 294 2
69 298 9
69 299 2
70 72 7
70 73 1
70 74 7
70 79 10
70 80 3
70 83 3
70 84 5
70 85 3
70 87 1
70 89 6
70 90 7
70 91 1
70 93 2
70 94 8
70 97 8
70 99 9
70 101 2
70 104 3
70 106 2
70 107 3
70 108 1
70 109 9
70 112 8
70 115 3
70 117 2
70 121 9
70 122 9
70 123 8
70 125 7
70 129 4
70 130 3
70 131 2
70 136 7
70 137 2
70 138 6
70 139 2
70 140 2
70 141 2
70 144 1
70 145 7
70 148 8
70 151 10
70 152 5
70 154 6
70 159 8
70 160 7
70 161 2
70 162 2
70 167 2
70 174 5
70 176 6
70 179 7
70 182 5
70 185 6
70 187 1
70 188 6
70 189 10
70 191 6
70 193 1
70 196 4
70 197 2
70 198 6
70 204 1
70 207 2
70 210 8
70 211 10
70 212 1
70 215 4
70 217 7
70 219 3
70 221 2
70 223 8
70 226 3
70 227 10
70 229 3
70 230 3
70 231 9
70 232 8
70 236 3
70 240 2
70 244 8
70 246 9
70 249 1
70 251 9
70 258 1
70 262 8
70 265 8
70 267 4
70 271 7
70 272 4
70 274 3
70 275 7
70 276 8
70 277 2
70 278 10
70 280 5
70 281 6
70 283 8
70 284 3
70 290 6
70 291 6
70 292 6
70 297 9
70 299 4
71 72 6
71 75 10
71 77 10
71 79 3
71 80 6
71 81 7
71 82 6
71 84 8
71 87 4
71 92 1
71 93 8
71 94 1
71 95 6
71 96 7
71 98 6
71 99 3
71 101 2
71 103 1
71 119 3
71 124 9
71 126 5
71 127 1
71 132 6
71 134 1
71 137 2
71 138 2
71 143 3
71 145 7
71 146 5
71 147 10
71 149 5
71 150 2
71 155 7
71 157 6
71 158 2
71 160 10
71 161 5
71 163 1
71 164 3
71 167 10
71 172 8
71 173 10
71 174 7
71 175 10
71 178 5
71 180 9
71 187 2
71 188 1
71 196 2
71 197 9
71 199 5
71 200 1
71 202 7
71 205 4
71 207 7
71 208 3
71 211 1
71 212 7
71 213 6
71 216 9
71 221 2
71 224 3
71 225 7
71 226 1
71 227 5
71 230 6
71 231 7
71 232 1
71 233 9
71 236 5
71 239 10
71 241 2
71 242 5
71 243 9
71 244 9
71 245 4
71 246 1
71 247 3
71 248 6
71 249 3
71 250 9
71 252 8
71 259 5
71 260 7
71 262 7
71 264 3
71 265 8
71 266 2
71 267 3
71 275 2
71 277 10
71 278 10
71 282 2
71 284 4
71 285 4
71 289 10
71 291 8
71 293 7
71 294 8
71 296 6
71 297 9
71 299 5
72 73 8
72 74 8
72 75 2
72 76 9
72 78 3
72 80 10
72 84 10
72 85 5
72 86 7
72 88 5
72 90 3
72 94 4
72 95 5
72 97 6
72 100 7
72 101 9
72 102 4
72 103 9
72 104 6
72 106 8
72 107 2
72 108 4
72 110 6
72 112 5
72 113 9
72 114 8
72 115 2
72 116 10
72 124 9
72 128 7
72 129 9
72 130 2
72 131 9
72 133 10
72 135 3
72 137 9
72 138 10
72 139 7
72 140 10
72 141 4
72 143 2
72 147 5
72 148 4
72 149 3
72 151 7
72 152 3
72 154 3
72 157 2
72 160 6
72 162 10
72 163 9
72 165 1
72 168 1
72 169 9
72 170 9
72 172 9
72 174 1
72 177 2
72 178 10
72 179 10
72 181 4
72 184 9
72 185 9
72 190 10
72 193 5
72 197 9
72 198 2
72 200 9
72 203 2
72 205 9
72 209 3
72 212 6
72 215 7
72 218 9
72 219 10
72 220 5
72 222 4
72 224 8
72 225 7
72 227 7
72 231 7
72 233 5
72 234 1
72 235 10
72 236 4
72 237 2
72 239 6
72 240 1
72 241 2
72 246 5
72 249 2
72 250 3
72 251 3
72 252 3
72 254 8
72 255 7
72 256 9
72 257 10
72 258 8
72 259 9
72 261 10
72 264 2
72 265 3
72 268 5
72 271 10
72 278 10
72 279 6
72 281 2
72 282 5
72 283 1
72 284 9
72 285 6
72 286 5
72 287 3
72 293 7
72 298 10
72 300 5
73 74 7
73 75 10
73 76 10
73 77 2
73 79 10
73 80 8
73 82 1
73 83 9
73 85 1
73 89 10
73 91 7
73 92 5
73 93 10
73 96 6
73 100 5
73 101 2
73 102 5
73 105 8
73 108 5
73 110 6
73 112 3
73 113 7
73 115 1
73 116 9
73 117 7
73 119 2
73 121 2
73 124 7
73 126 1
73 127 6
73 128 8
73 134 2
73 137 9
73 138 10
73 139 7
73 140 1
73 141 2
73 142 4
73 143 5
73 145 8
73 147 4
73 148 3
73 152 8
73 153 6
73 154 1
73 155 8
73 162 8
73 163 3
73 166 5
73 167 10
73 168 4
73 169 8
73 170 3
73 172 7
73 174 2
73 176 9
73 178 1
73 179 1
73 181 8
73 182 5
73 183 2
73 185 9
73 186 3
73 188 6
73 189 1
73 190 1
73 191 2
73 195 1
73 196 3
73 200 1
73 202 3
73 204 7
73 211 5
73 212 6
73 215 7
73 218 1
73 219 10
73 220 8
73 221 6
73 222 8
73 223 6
73 225 8
73 227 10
73 228 1
73 234 3
73 235 7
73 237 7
73 238 4
73 243 1
73 245 8
73 246 3
73 247 4
73 248 5
73 250 10
73 251 10
73 253 9
73 254 3
73 255 10
73 256 10
73 257 1
73 259 10
73 260 5
73 261 6
73 262 2
73 263 6
73 265 7
73 266 8
73 268 3
73 269 10
73 273 3
73 275 10
73 277 7
73 278 2
73 281 9
73 283 6
73 284 9
73 286 8
73 287 1
73 288 9
73 290 2
73 291 8
73 293 7
73 296 6
73 297 5
73 298 10
74 76 7
74 77 8
74 80 1
74 82 1
74 83 7
74 85 10
74 86 8
74 87 9
74 89 9
74 90 1
74 91 4
74 93 1
74 94 5
74 95 2
74 96 3
74 97 5
74 98 10
74 99 1
74 102 1
74 103 2
74 108 10
74 109 1
74 110 6
74 111 7
74 116 9
74 122 3
74 123 1
74 124 5
74 125 2
74 126 8
74 127 5
74 128 7
74 129 9
74 130 10
74 133 5
74 137 8
74 140 3
74 141 1
74 145 5
74 148 8
74 149 9
74 151 6
74 153 9
74 156 4
74 160 3
74 162 2
74 167 3
74 168 9
74 169 9
74 173 2
74 174 4
74 177 3
74 179 6
74 181 2
74 186 5
74 189 3
74 191 8
74 192 7
74 194 9
74 195 2
74 196 10
74 197 6
74 199 9
74 201 2
74 203 7
74 207 5
74 208 2
74 209 7
74 210 8
74 214 10
74 215 10
74 217 10
74 218 9
74 219 4
74 220 6
74 222 1
74 224 10
74 226 6
74 231 3
74 232 10
74 234 3
74 235 10
74 236 4
74 238 2
74 239 3
74 240 6
74 244 2
74 245 1
74 247 3
74 249 4
74 250 9
74 251 3
74 253 1
74 254 9
74 255 9
74 256 4
74 257 8
74 259 5
74 263 4
74 264 5
74 266 7
74 267 3
74 268 10
74 270 5
74 271 4
74 272 7
74 274 9
74 275 8
74 279 6
74 280 6
74 282 5
74 283 4
74 287 6
74 289 7
74 291 1
74 293 10
74 294 9
74 298 1
74 300 5
75 76 7
75 78 2
75 80 5
75 83 3
75 85 9
75 87 4
75 89 10
75 91 10
75 95 4
75 97 5
75 99 4
75 100 4
75 103 7
75 105 5
75 106 10
75 109 7
75 112 6
75 113 6
75 115 6
75 116 7
75 117 2
75 119 10
75 120 6
75 122 7
75 123 2
75 124 1
75 126 1
75 127 8
75 132 8
75 134 10
75 136 3
75 138 4
75 139 4
75 140 7
75 141 4
75 142 10
75 143 5
75 146 3
75 148 3
75 149 8
75 152 10
75 153 1
75 154 9
75 155 6
75 160 3
75 161 2
75 164 3
75 165 6
75 167 3
75 169 5
75 172 9
75 175 7
75 180 7
75 182 5
75 184 6
75 186 2
75 187 4
75 189 3
75 190 9
75 191 8
75 192 6
75 193 6
75 198 6
75 200 6
75 204 3
75 206 5
75 207 10
75 208 6
75 211 1
75 212 9
75 214 5
75 215 7
75 216 7
75 219 7
75 222 4
75 225 7
75 226 9
75 227 2
75 233 9
75 235 3
75 237 3
75 239 3
75 240 3
75 242 8
75 244 2
75 245 9
75 248 5
75 251 6
75 254 9
75 256 5
75 259 8
75 261 6
75 264 9
75 265 3
75 266 4
75 269 5
75 270 10
75 271 8
75 272 7
75 273 6
75 274 4
75 275 8
75 281 3
75 282 4
75 284 7
75 286 6
75 287 1
75 288 6
75 290 2
75 291 9
75 292 6
75 293 6
75 296 2
75 297 10
75 299 2
76 78 6
76 79 7
76 80 5
76 81 4
76 82 6
76 84 7
76 85 5
76 86 6
76 89 9
76 95 2
76 97 9
76 99 2
76 100 6
76 101 4
76 106 9
76 107 7
76 108 4
76 114 3
76 116 1
76 117 4
76 119 3
76 121 5
76 122 1
76 123 9
76 126 4
76 131 6
76 133 3
76 135 7
76 137 4
76 139 5
76 140 8
76 142 4
76 144 10
76 145 7
76 146 5
76 153 5
76 154 9
76 155 2
76 156 2
76 157 8
76 158 5
76 161 10
76 162 1
76 163 5
76 166 4
76 167 9
76 169 2
76 173 5
76 175 4
76 177 2
76 178 8
76 179 2
76 180 9
76 181 7
76 183 10
76 184 4
76 185 10
76 187 3
76 189 9
76 190 6
76 191 5
76 193 3
76 194 10
76 197 7
76 199 8
76 201 2
76 202 1
76 206 7
76 209 3
76 212 3
76 216 9
76 217 5
76 218 8
76 220 8
76 221 4
76 222 6
76 224 8
76 225 6
76 227 7
76 229 6
76 230 1
76 235 4
76 237 8
76 242 10
76 243 5
76 249 6
76 250 1
76 251 1
76 253 8
76 254 10
76 256 1
76 262 8
76 263 8
76 264 8
76 265 1
76 270 8
76 273 3
76 274 1
76 277 1
76 278 8
76 279 7
76 280 9
76 281 3
76 282 10
76 284 4
76 285 4
76 288 10
76 289 4
76 290 4
76 291 3
76 292 2
76 294 3
76 295 2
76 296 5
76 300 7
77 82 6
77 84 2
77 86 7
77 89 8
77 91 10
77 93 10
77 94 9
77 98 10
77 101 9
77 102 2
77 104 10
77 105 5
77 110 10
77 112 1
77 113 4
77 114 4
77 116 3
77 119 1
77 121 4
77 122 4
77 124 7
77 127 3
77 130 5
77 131 1
77 132 9
77 133 9
77 134 8
77 136 5
77 137 4
77 138 2
77 139 3
77 142 4
77 146 9
77 150 4
77 155 10
77 156 10
77 157 3
77 158 5
77 161 1
77 163 10
77 164 5
77 165 2
77 166 3
77 167 1
77 172 7
77 175 4
77 177 4
77 179 8
77 180 1
77 181 3
77 182 5
77 183 5
77 185 7
77 187 7
77 191 10
77 193 1
77 197 9
77 198 5
77 199 2
77 201 2
77 202 9
77 204 5
77 205 7
77 206 1
77 207 7
77 210 10
77 218 10
77 219 5
77 220 3
77 223 1
77 224 7
77 229 8
77 230 5
77 231 3
77 232 6
77 233 8
77 234 1
77 235 9
77 236 6
77 238 9
77 240 3
77 242 1
77 243 4
77 244 5
77 245 5
77 251 1
77 253 8
77 260 3
77 261 3
77 264 4
77 268 6
77 270 9
77 273 7
77 275 5
77 276 9
77 279 8
77 281 4
77 282 2
77 287 3
77 288 1
77 290 3
77 291 6
77 293 1
77 296 2
77 297 6
77 298 7
77 300 1
78 79 8
78 81 5
78 82 6
78 84 2
78 87 6
78 90 5
78 91 10
78 92 1
78 94 8
78 95 7
78 97 7
78 98 1
78 99 3
78 100 3
78 101 4
78 104 10
78 105 2
78 106 1
78 108 1
78 109 7
78 112 8
78 113 3
78 114 8
78 115 5
78 116 4
78 117 7
78 119 7
78 122 5
78 124 8
78 125 6
78 127 4
78 129 1
78 130 5
78 131 6
78 133 2
78 137 6
78 139 10
78 141 8
78 142 10
78 143 1
78 145 2
78 146 6
78 148 2
78 151 2
78 154 3
78 156 5
78 158 9
78 160 2
78 165 5
78 168 7
78 169 4
78 171 6
78 172 1
78 184 8
78 187 9
78 190 10
78 191 10
78 193 5
78 194 6
78 196 1
78 200 6
78 202 2
78 204 8
78 205 10
78 209 4
78 210 2
78 211 9
78 214 3
78 215 3
78 216 3
78 217 4
78 218 1
78 220 7
78 223 4
78 227 1
78 228 3
78 229 10
78 231 10
78 234 5
78 240 6
78 241 10
78 244 9
78 247 6
78 248 10
78 249 7
78 250 10
78 252 8
78 253 4
78 258 8
78 259 8
78 261 9
78 263 3
78 264 6
78 266 10
78 268 8
78 269 7
78 270 4
78 271 9
78 273 10
78 274 8
78 275 3
78 279 3
78 280 10
78 285 6
78 287 7
78 288 1
78 293 8
78 294 10
78 295 4
78 299 3
79 80 7
79 82 5
79 83 5
79 85 5
79 90 7
79 91 1
79 92 4
79 95 10
79 97 9
79 101 6
79 104 2
79 112 4
79 114 9
79 115 2
79 120 8
79 121 10
79 122 1
79 123 5
79 125 5
79 129 6
79 131 4
79 132 9
79 133 5
79 134 9
79 139 6
79 140 2
79 141 1
79 142 10
79 144 9
79 145 7
79 147 10
79 150 7
79 153 9
79 154 6
79 158 9
79 159 4
79 161 8
79 162 1
79 164 7
79 169 6
79 170 6
79 171 4
79 173 4
79 177 6
79 180 4
79 181 4
79 182 10
79 187 8
79 188 10
79 191 8
79 193 9
79 198 1
79 200 6
79 202 4
79 204 2
79 205 8
79 207 2
79 209 10
79 210 1
79 212 6
79 214 6
79 216 1
79 217 1
79 218 5
79 219 4
79 221 7
79 222 5
79 223 8
79 224 3
79 230 6
79 234 9
79 235 10
79 236 4
79 238 7
79 239 6
79 241 7
79 243 10
79 244 5
79 245 6
79 246 1
79 248 2
79 249 5
79 253 8
79 254 3
79 255 7
79 263 7
79 265 7
79 270 10
79 274 1
79 275 3
79 276 8
79 278 7
79 279 7
79 282 1
79 284 7
79 290 9
79 293 4
79 294 9
79 295 9
79 298 3
79 299 7
79 300 4
80 82 9
80 86 1
80 89 2
80 90 10
80 92 3
80 93 10
80 95 3
80 101 6
80 106 2
80 107 1
80 108 10
80 110 7
80 111 10
80 112 10
80 114 1
80 115 10
80 116 3
80 118 9
80 120 1
80 127 10
80 128 10
80 129 1
80 131 6
80 132 7
80 133 2
80 135 6
80 138 8
80 140 8
80 141 6
80 142 4
80 144 2
80 145 3
80 146 1
80 148 5
80 149 1
80 154 10
80 156 8
80 160 6
80 161 4
80 163 8
80 167 3
80 168 9
80 170 9
80 171 8
80 176 8
80 178 9
80 181 4
80 185 2
80 188 3
80 189 5
80 194 2
80 196 8
80 197 1
80 199 2
80 200 5
80 201 7
80 203 3
80 204 9
80 205 9
80 206 2
80 209 4
80 211 1
80 215 6
80 216 8
80 219 2
80 221 3
80 222 8
80 223 9
80 224 2
80 226 10
80 228 6
80 232 9
80 233 6
80 236 6
80 237 9
80 238 4
80 242 5
80 244 2
80 245 2
80 247 3
80 248 4
80 249 6
80 250 10
80 251 10
80 252 1
80 253 2
80 254 5
80 255 10
80 256 1
80 260 4
80 262 3
80 266 8
80 267 8
80 269 3
80 272 5
80 273 6
80 274 8
80 281 10
80 282 9
80 284 10
80 287 8
80 293 7
80 294 8
80 296 1
80 299 8
81 82 9
81 83 9
81 84 8
81 87 9
81 88 7
81 90 10
81 92 6
81 93 7
81 98 4
81 103 3
81 104 1
81 105 10
81 108 9
81 111 10
81 113 6
81 116 2
81 117 10
81 118 4
81 119 1
81 120 2
81 123 9
81 125 2
81 126 9
81 128 3
81 129 8
81 132 1
81 134 9
81 135 3
81 136 8
81 137 8
81 140 7
81 141 3
81 142 5
81 143 8
81 144 6
81 145 8
81 146 9
81 148 9
81 149 9
81 150 1
81 152 3
81 153 9
81 155 4
81 157 3
81 158 4
81 159 1
81 162 10
81 164 1
81 166 8
81 169 2
81 170 8
81 171 2
81 177 8
81 180 3
81 181 8
81 183 1
81 184 5
81 188 7
81 190 9
81 192 6
81 196 5
81 197 7
81 200 10
81 201 9
81 202 1
81 203 7
81 204 8
81 205 2
81 207 6
81 208 10
81 209 3
81 210 1
81 211 9
81 216 1
81 220 3
81 223 5
81 225 5
81 226 6
81 228 6
81 232 3
81 233 7
81 235 10
81 240 9
81 245 3
81 248 4
81 250 4
81 251 10
81 257 8
81 258 3
81 262 4
81 267 4
81 268 9
81 271 10
81 274 2
81 275 9
81 279 5
81 281 6
81 282 10
81 283 9
81 284 10
81 287 10
81 292 3
81 294 2
81 295 3
81 296 5
81 297 9
81 298 4
81 299 7
82 84 7
82 86 6
82 88 10
82 90 5
82 94 6
82 95 7
82 96 5
82 97 10
82 99 2
82 103 5
82 104 10
82 106 10
82 107 5
82 108 10
82 118 6
82 121 7
82 122 1
82 123 10
82 124 6
82 125 6
82 129 9
82 133 4
82 134 5
82 138 2
82 139 5
82 142 10
82 144 10
82 149 1
82 151 10
82 153 4
82 154 4
82 155 3
82 158 4
82 161 8
82 166 10
82 167 4
82 169 4
82 170 2
82 171 1
82 172 10
82 173 6
82 174 8
82 176 10
82 179 3
82 181 5
82 182 9
82 185 5
82 190 9
82 191 3
82 192 8
82 194 10
82 195 2
82 196 6
82 197 2
82 200 5
82 201 6
82 204 1
82 211 3
82 212 8
82 214 7
82 217 5
82 218 1
82 219 5
82 222 5
82 223 2
82 224 6
82 225 7
82 227 7
82 230 4
82 231 6
82 232 2
82 234 1
82 240 6
82 241 9
82 245 2
82 247 5
82 248 7
82 250 5
82 251 3
82 252 8
82 253 6
82 254 1
82 255 3
82 256 7
82 258 6
82 259 2
82 262 2
82 263 6
82 264 8
82 266 8
82 267 8
82 270 1
82 271 3
82 272 10
82 273 8
82 277 8
82 283 4
82 285 9
82 286 8
82 289 5
82 290 10
82 291 8
82 292 9
82 294 2
82 298 7
83 86 2
83 89 7
83 91 8
83 92 10
83 94 5
83 95 7
83 98 4
83 100 1
83 105 3
83 107 2
83 109 8
83 110 2
83 111 4
83 112 4
83 114 9
83 118 3
83 119 2
83 120 10
83 122 6
83 124 1
83 125 9
83 127 10
83 129 4
83 132 10
83 133 1
83 134 8
83 136 5
83 137 9
83 138 9
83 141 2
83 142 4
83 143 6
83 144 8
83 145 5
83 146 2
83 147 10
83 151 6
83 153 3
83 155 8
83 157 6
83 158 9
83 161 5
83 162 4
83 165 3
83 168 3
83 169 4
83 170 2
83 172 8
83 174 3
83 177 9
83 179 1
83 180 6
83 181 2
83 182 2
83 184 7
83 187 9
83 188 1
83 189 8
83 190 7
83 194 7
83 202 5
83 204 8
83 205 3
83 207 10
83 208 3
83 209 3
83 210 3
83 215 6
83 222 3
83 223 3
83 224 10
83 226 5
83 227 2
83 229 8
83 230 9
83 231 7
83 233 6
83 234 5
83 235 6
83 237 7
83 238 4
83 239 4
83 241 10
83 243 7
83 244 5
83 249 4
83 250 5
83 254 7
83 257 10
83 258 1
83 262 5
83 263 9
83 266 4
83 267 4
83 269 1
83 270 7
83 273 6
83 276 1
83 277 1
83 280 3
83 281 5
83 282 3
83 284 7
83 285 1
83 288 9
83 294 8
83 295 4
83 296 2
84 85 2
84 86 7
84 87 7
84 88 8
84 89 1
84 92 6
84 93 6
84 96 3
84 99 8
84 101 3
84 102 6
84 108 6
84 110 2
84 112 9
84 114 10
84 115 9
84 117 6
84 118 6
84 120 4
84 121 7
84 123 7
84 124 9
84 126 9
84 127 3
84 131 2
84 132 7
84 134 8
84 136 10
84 137 10
84 141 5
84 142 7
84 144 6
84 145 8
84 146 1
84 147 5
84 148 4
84 149 4
84 151 9
84 152 4
84 153 7
84 155 5
84 156 10
84 159 6
84 160 9
84 163 10
84 164 10
84 165 4
84 167 9
84 170 9
84 171 4
84 172 10
84 174 2
84 175 2
84 176 1
84 178 4
84 179 5
84 181 5
84 184 1
84 185 3
84 186 5
84 189 1
84 190 9
84 191 6
84 193 9
84 196 7
84 197 6
84 198 6
84 204 4
84 206 9
84 207 2
84 208 7
84 209 2
84 210 1
84 211 6
84 212 3
84 213 8
84 214 9
84 216 1
84 220 9
84 221 7
84 222 8
84 224 8
84 225 1
84 227 1
84 228 4
84 229 4
84 230 9
84 231 8
84 232 5
84 233 2
84 235 4
84 236 8
84 237 5
84 242 10
84 243 7
84 244 9
84 250 7
84 251 3
84 252 6
84 262 7
84 264 3
84 265 5
84 266 2
84 267 4
84 269 7
84 274 10
84 278 1
84 282 8
84 283 5
84 285 2
84 287 4
84 288 9
84 289 10
84 291 7
84 294 7
84 298 5
84 299 10
85 86 9
85 87 3
85 89 3
85 90 4
85 91 4
85 96 10
85 97 2
85 101 6
85 104 4
85 105 1
85 107 8
85 110 3
85 111 6
85 112 3
85 113 2
85 115 8
85 116 2
85 117 3
85 121 3
85 122 7
85 123 6
85 126 2
85 127 9
85 128 9
85 131 4
85 132 9
85 133 8
85 134 2
85 135 8
85 139 2
85 140 5
85 141 2
85 144 3
85 146 5
85 149 3
85 150 7
85 152 1
85 153 2
85 155 3
85 157 4
85 158 2
85 160 4
85 165 10
85 168 5
85 173 5
85 175 4
85 176 9
85 177 8
85 181 2
85 183 1
85 185 9
85 187 5
85 188 8
85 190 8
85 191 9
85 193 8
85 194 9
85 197 7
85 198 1
85 199 9
85 201 7
85 202 3
85 204 10
85 205 7
85 206 7
85 207 4
85 209 10
85 210 10
85 215 4
85 216 3
85 219 8
85 222 9
85 223 2
85 225 5
85 226 10
85 227 5
85 228 2
85 230 8
85 231 4
85 236 9
85 238 5
85 239 10
85 240 6
85 242 4
85 244 3
85 246 5
85 248 5
85 250 5
85 251 3
85 252 2
85 254 5
85 255 2
85 256 10
85 258 6
85 259 6
85 261 5
85 262 4
85 265 8
85 266 6
85 267 6
85 270 7
85 272 1
85 273 8
85 278 6
85 285 8
85 286 10
85 287 7
85 289 1
85 294 2
85 295 6
85 297 3
85 299 7
86 88 1
86 89 9
86 92 10
86 98 5
86 103 1
86 105 7
86 107 5
86 108 4
86 111 1
86 112 6
86 113 7
86 115 2
86 117 7
86 118 9
86 120 9
86 121 6
86 122 4
86 123 3
86 124 3
86 126 6
86 128 10
86 129 1
86 131 8
86 136 1
86 137 4
86 138 6
86 139 9
86 142 7
86 143 2
86 146 2
86 150 6
86 153 8
86 157 2
86 158 6
86 159 6
86 162 7
86 163 3
86 164 9
86 165 4
86 167 5
86 170 1
86 171 8
86 172 1
86 175 5
86 176 8
86 179 10
86 180 5
86 183 7
86 184 4
86 185 5
86 186 8
86 189 2
86 190 3
86 191 5
86 192 4
86 196 10
86 202 8
86 203 1
86 205 1
86 206 7
86 207 10
86 209 3
86 212 9
86 214 9
86 217 5
86 221 9
86 222 1
86 223 7
86 224 7
86 226 5
86 227 1
86 230 8
86 231 1
86 232 3
86 235 1
86 240 7
86 242 10
86 246 7
86 249 2
86 251 5
86 253 3
86 255 8
86 259 9
86 261 7
86 262 3
86 264 3
86 265 6
86 267 3
86 268 1
86 270 10
86 271 7
86 273 2
86 274 9
86 276 9
86 278 3
86 280 2
86 282 3
86 283 7
86 284 9
86 285 4
86 286 8
86 287 8
86 288 7
86 290 10
86 291 9
86 294 7
86 295 10
86 296 1
86 297 6
86 300 9
87 92 4
87 93 9
87 99 3
87 101 9
87 102 4
87 104 2
87 107 10
87 108 10
87 109 10
87 111 3
87 113 10
87 114 10
87 116 1
87 120 4
87 122 7
87 124 3
87 129 5
87 131 6
87 136 6
87 138 5
87 139 5
87 140 6
87 142 7
87 143 4
87 146 7
87 147 9
87 148 5
87 155 3
87 156 9
87 157 2
87 159 6
87 160 5
87 164 10
87 165 1
87 167 4
87 168 8
87 171 3
87 172 6
87 175 5
87 177 2
87 179 2
87 181 8
87 184 6
87 187 3
87 190 7
87 191 4
87 193 7
87 194 3
87 196 6
87 199 4
87 201 3
87 202 5
87 205 4
87 211 5
87 212 1
87 213 10
87 214 7
87 216 4
87 219 9
87 221 9
87 224 3
87 226 10
87 229 2
87 232 8
87 233 3
87 237 1
87 242 6
87 243 10
87 244 4
87 247 4
87 248 3
87 249 1
87 251 7
87 252 9
87 253 8
87 254 1
87 255 4
87 256 9
87 257 4
87 258 1
87 261 6
87 262 7
87 263 8
87 265 7
87 266 9
87 267 4
87 269 7
87 271 5
87 272 6
87 273 7
87 276 7
87 278 1
87 279 3
87 281 1
87 284 3
87 285 10
87 287 10
87 291 1
87 294 6
87 296 4
87 298 10
88 89 7
88 90 1
88 92 8
88 95 10
88 96 7
88 97 7
88 98 2
88 103 10
88 104 10
88 105 3
88 106 9
88 108 7
88 110 4
88 111 5
88 114 5
88 116 5
88 117 4
88 119 10
88 120 7
88 121 2
88 122 3
88 124 3
88 125 7
88 126 8
88 127 4
88 130 4
88 132 3
88 136 5
88 138 10
88 141 6
88 142 2
88 143 9
88 147 8
88 149 2
88 150 10
88 153 7
88 154 8
88 155 5
88 159 8
88 161 4
88 162 1
88 165 8
88 167 9
88 169 9
88 170 7
88 178 8
88 179 9
88 181 9
88 182 8
88 184 4
88 187 10
88 189 3
88 190 7
88 191 3
88 192 9
88 195 10
88 196 7
88 197 8
88 201 4
88 203 1
88 205 3
88 206 1
88 207 6
88 209 6
88 214 10
88 215 5
88 218 7
88 223 3
88 224 3
88 228 6
88 230 9
88 231 7
88 233 5
88 234 10
88 236 2
88 237 10
88 238 3
88 240 2
88 241 2
88 242 4
88 246 2
88 249 7
88 250 4
88 251 10
88 252 3
88 253 2
88 254 9
88 257 1
88 267 2
88 270 6
88 273 2
88 274 1
88 278 9
88 283 9
88 284 1
88 288 10
88 293 6
88 294 7
88 295 5
88 299 7
89 91 8
89 92 1
89 93 2
89 94 9
89 95 7
89 98 1
89 99 1
89 103 9
89 106 10
89 110 4
89 112 2
89 113 9
89 116 8
89 119 1
89 120 9
89 121 1
89 122 5
89 123 1
89 124 2
89 125 1
89 131 10
89 132 8
89 133 7
89 134 7
89 136 3
89 138 5
89 139 1
89 142 4
89 144 2
89 147 3
89 148 4
89 150 4
89 152 5
89 153 8
89 155 3
89 159 10
89 161 4
89 169 5
89 170 6
89 172 9
89 173 7
89 175 3
89 177 4
89 178 7
89 182 2
89 185 9
89 186 6
89 190 8
89 192 8
89 193 9
89 195 6
89 197 4
89 199 5
89 200 4
89 201 4
89 202 2
89 203 10
89 205 4
89 213 2
89 216 5
89 218 3
89 220 2
89 221 1
89 223 2
89 230 5
89 231 1
89 233 8
89 239 6
89 241 1
89 243 7
89 245 10
89 247 1
89 252 10
89 253 2
89 256 6
89 259 10
89 260 3
89 261 4
89 262 5
89 263 9
89 265 7
89 267 10
89 268 9
89 269 9
89 270 10
89 271 10
89 273 10
89 274 9
89 275 9
89 280 5
89 281 3
89 285 2
89 288 6
89 289 4
89 291 10
89 292 5
89 294 3
89 295 1
89 299 1
90 96 10
90 99 7
90 104 4
90 105 10
90 106 7
90 107 4
90 108 4
90 113 10
90 114 1
90 118 5
90 120 5
90 121 4
90 122 9
90 129 7
90 131 4
90 132 6
90 134 3
90 135 10
90 137 4
90 138 3
90 139 4
90 141 3
90 142 4
90 143 1
90 147 10
90 149 6
90 150 4
90 153 9
90 155 6
90 156 8
90 157 10
90 158 4
90 159 2
90 162 2
90 163 8
90 164 4
90 166 8
90 168 4
90 169 2
90 170 4
90 172 8
90 174 10
90 175 6
90 179 7
90 180 5
90 182 4
90 183 3
90 188 5
90 189 3
90 191 1
90 195 6
90 196 7
90 198 8
90 200 8
90 201 6
90 203 5
90 205 8
90 207 1
90 209 4
90 215 1
90 216 9
90 217 5
90 218 7
90 219 3
90 220 3
90 221 3
90 224 3
90 225 5
90 228 3
90 229 7
90 231 2
90 233 4
90 235 7
90 237 5
90 238 10
90 239 1
90 241 5
90 242 9
90 244 2
90 245 2
90 246 4
90 248 8
90 249 2
90 251 6
90 252 1
90 253 8
90 254 5
90 256 10
90 262 9
90 263 7
90 265 4
90 266 4
90 267 7
90 271 6
90 273 4
90 274 6
90 279 4
90 281 1
90 283 4
90 286 8
90 287 6
90 288 7
90 291 4
90 292 4
90 293 10
90 294 7
90 295 5
90 296 5
90 297 4
90 298 2
90 299 7
90 300 8
91 92 10
91 93 5
91 95 7
91 97 8
91 98 5
91 100 9
91 103 7
91 104 10
91 105 4
91 108 2
91 112 1
91 114 4
91 116 9
91 120 5
91 122 9
91 123 1
91 126 9
91 128 4
91 129 5
91 131 9
91 132 2
91 133 2
91 134 8
91 135 3
91 136 4
91 137 9
91 141 8
91 143 3
91 150 8
91 157 3
91 158 2
91 160 7
91 161 8
91 162 8
91 164 1
91 165 6
91 167 10
91 168 3
91 170 7
91 174 5
91 177 7
91 179 6
91 180 1
91 181 10
91 183 2
91 189 4
91 190 4
91 191 7
91 198 8
91 199 10
91 200 4
91 205 10
91 207 6
91 209 10
91 210 5
91 213 1
91 214 7
91 222 7
91 223 1
91 225 5
91 227 9
91 228 3
91 229 5
91 231 3
91 234 1
91 236 3
91 237 4
91 239 2
91 240 5
91 242 8
91 243 7
91 245 3
91 246 9
91 247 2
91 250 1
91 251 7
91 252 2
91 256 4
91 257 2
91 259 5
91 263 8
91 264 8
91 265 3
91 267 6
91 269 4
91 270 2
91 271 2
91 272 1
91 276 8
91 280 9
91 281 5
91 283 9
91 285 2
91 288 7
91 289 8
91 294 2
91 299 5
91 300 2
92 94 3
92 96 4
92 98 3
92 100 9
92 102 1
92 104 10
92 105 10
92 107 6
92 111 8
92 115 4
92 118 10
92 119 5
92 120 10
92 121 5
92 123 4
92 124 1
92 126 3
92 128 1
92 132 6
92 133 1
92 135 7
92 137 1
92 138 7
92 139 2
92 140 6
92 141 9
92 144 3
92 146 4
92 147 2
92 148 7
92 150 8
92 153 9
92 156 2
92 160 4
92 161 4
92 162 5
92 164 6
92 166 3
92 169 2
92 170 8
92 171 8
92 173 6
92 174 2
92 176 5
92 177 9
92 178 7
92 179 3
92 183 3
92 184 4
92 189 1
92 190 7
92 197 1
92 199 3
92 200 10
92 201 6
92 204 3
92 205 2
92 208 5
92 210 7
92 212 2
92 217 1
92 218 10
92 219 5
92 220 9
92 223 1
92 225 10
92 227 7
92 228 7
92 230 8
92 233 9
92 234 2
92 235 6
92 237 7
92 240 8
92 245 9
92 246 8
92 249 5
92 250 3
92 251 8
92 252 5
92 254 9
92 257 8
92 258 8
92 260 3
92 262 2
92 264 6
92 271 10
92 276 1
92 277 9
92 282 6
92 284 8
92 285 3
92 288 5
92 294 6
92 296 9
93 95 1
93 96 8
93 97 10
93 98 2
93 99 1
93 101 8
93 102 5
93 103 2
93 106 8
93 109 5
93 110 5
93 111 2
93 112 4
93 113 9
93 114 5
93 116 6
93 117 4
93 119 3
93 122 9
93 124 6
93 125 2
93 129 7
93 130 7
93 131 9
93 132 6
93 133 5
93 136 8
93 137 6
93 138 3
93 140 10
93 142 8
93 143 7
93 146 5
93 147 3
93 148 5
93 152 7
93 153 9
93 155 10
93 159 7
93 160 4
93 161 7
93 162 5
93 163 3
93 164 7
93 165 9
93 167 2
93 169 6
93 171 9
93 173 1
93 174 4
93 176 3
93 180 6
93 184 5
93 185 10
93 186 7
93 190 10
93 191 7
93 192 5
93 193 3
93 194 10
93 195 1
93 198 5
93 200 10
93 201 9
93 203 7
93 204 4
93 207 3
93 210 10
93 211 9
93 213 8
93 214 2
93 218 2
93 221 7
93 222 9
93 224 8
93 226 9
93 227 7
93 228 3
93 232 8
93 234 10
93 235 4
93 236 4
93 240 4
93 241 4
93 242 5
93 245 7
93 247 6
93 248 2
93 249 3
93 251 2
93 252 9
93 253 10
93 254 4
93 256 2
93 257 6
93 260 3
93 262 7
93 266 6
93 267 7
93 268 6
93 269 3
93 270 5
93 273 5
93 274 6
93 275 2
93 276 5
93 279 1
93 280 6
93 282 7
93 284 6
93 289 4
93 291 7
93 293 8
93 296 9
93 297 2
93 298 5
93 299 7
94 96 6
94 101 9
94 104 5
94 107 9
94 108 4
94 109 7
94 121 1
94 123 4
94 124 8
94 127 5
94 132 1
94 133 1
94 135 7
94 137 10
94 138 9
94 139 2
94 140 1
94 141 4
94 142 8
94 144 3
94 145 1
94 150 10
94 152 2
94 153 10
94 154 9
94 159 6
94 160 10
94 162 4
94 163 10
94 169 2
94 170 3
94 171 10
94 173 6
94 174 6
94 177 4
94 178 5
94 181 10
94 183 2
94 186 1
94 189 9
94 191 10
94 192 5
94 193 3
94 194 9
94 196 9
94 197 5
94 199 3
94 202 7
94 203 2
94 205 4
94 206 1
94 208 5
94 212 3
94 221 2
94 223 7
94 224 8
94 225 3
94 227 2
94 229 7
94 234 9
94 236 4
94 237 4
94 242 3
94 248 3
94 250 2
94 251 2
94 252 3
94 253 1
94 255 3
94 256 7
94 257 5
94 258 9
94 260 4
94 263 9
94 264 2
94 265 2
94 270 2
94 271 8
94 272 1
94 273 9
94 274 8
94 277 10
94 278 8
94 282 8
94 283 9
94 284 3
94 285 8
94 286 2
94 288 4
94 289 8
94 293 9
94 295 10
94 296 9
94 297 1
94 298 3
94 299 6
94 300 3
95 97 2
95 102 4
95 103 2
95 104 2
95 106 6
95 107 1
95 109 9
95 111 5
95 112 10
95 114 3
95 115 1
95 117 10
95 119 4
95 120 4
95 123 1
95 124 3
95 128 1
95 129 1
95 130 8
95 133 6
95 134 3
95 138 7
95 140 9
95 142 4
95 143 1
95 145 2
95 146 1
95 147 6
95 148 10
95 150 10
95 151 9
95 152 5
95 157 7
95 160 5
95 161 4
95 163 8
95 164 7
95 165 7
95 167 3
95 168 3
95 169 10
95 170 1
95 173 1
95 175 10
95 176 3
95 177 1
95 179 4
95 180 7
95 181 3
95 183 5
95 184 10
95 186 3
95 187 4
95 194 2
95 196 7
95 198 3
95 199 9
95 202 3
95 204 3
95 207 3
95 208 7
95 210 9
95 212 7
95 213 7
95 215 1
95 216 5
95 217 6
95 221 4
95 225 1
95 227 6
95 232 2
95 235 1
95 236 2
95 239 4
95 243 10
95 244 3
95 246 7
95 247 3
95 250 5
95 252 10
95 256 8
95 258 10
95 259 6
95 261 7
95 266 9
95 270 1
95 272 2
95 282 2
95 283 10
95 284 8
95 285 2
95 286 7
95 287 7
95 288 6
95 291 5
95 292 8
95 293 7
95 295 9
95 297 1
95 298 6
95 299 10
96 97 8
96 98 9
96 101 1
96 103 7
96 104 2
96 105 3
96 111 3
96 112 10
96 113 4
96 115 4
96 118 1
96 119 4
96 121 9
96 123 3
96 125 6
96 126 3
96 127 3
96 128 1
96 131 3
96 138 1
96 142 9
96 145 2
96 146 3
96 147 8
96 148 10
96 150 4
96 151 1
96 153 1
96 155 3
96 156 5
96 158 10
96 161 10
96 162 5
96 163 1
96 164 3
96 165 7
96 167 2
96 168 9
96 169 4
96 170 2
96 171 3
96 172 7
96 174 1
96 175 10
96 176 9
96 177 9
96 178 5
96 180 4
96 184 2
96 185 1
96 186 3
96 187 6
96 191 1
96 192 5
96 193 5
96 198 6
96 199 10
96 200 5
96 201 1
96 209 8
96 210 2
96 211 6
96 213 4
96 215 3
96 218 10
96 219 7
96 220 10
96 221 3
96 222 6
96 225 2
96 231 10
96 232 10
96 233 7
96 234 3
96 236 10
96 238 8
96 243 2
96 247 10
96 251 10
96 252 3
96 253 3
96 255 9
96 257 5
96 260 1
96 262 9
96 263 6
96 264 10
96 267 5
96 271 8
96 272 8
96 273 4
96 274 6
96 275 8
96 278 7
96 279 1
96 280 1
96 288 10
96 290 10
96 292 8
96 294 2
96 295 10
96 298 10
96 299 6
97 100 9
97 103 4
97 104 4
97 105 9
97 107 1
97 115 6
97 116 10
97 117 9
97 118 5
97 121 2
97 122 6
97 123 3
97 126 2
97 134 2
97 137 5
97 138 8
97 139 2
97 141 7
97 143 10
97 146 3
97 148 6
97 149 10
97 150 9
97 151 6
97 154 3
97 155 2
97 156 7
97 157 5
97 158 8
97 160 4
97 165 4
97 166 5
97 167 3
97 171 6
97 177 4
97 178 10
97 181 8
97 183 10
97 187 2
97 191 3
97 193 2
97 196 5
97 201 4
97 204 9
97 205 7
97 206 9
97 210 4
97 215 9
97 216 9
97 217 4
97 220 5
97 221 8
97 224 3
97 226 4
97 232 4
97 235 3
97 239 3
97 243 8
97 245 3
97 246 8
97 247 8
97 248 7
97 253 9
97 254 9
97 255 7
97 258 1
97 260 3
97 267 5
97 270 7
97 273 4
97 275 5
97 277 10
97 278 3
97 283 8
97 284 4
97 285 5
97 288 3
97 290 2
97 292 9
97 293 3
97 295 8
97 296 9
97 297 7
97 299 9
98 100 8
98 103 6
98 105 7
98 110 6
98 111 8
98 114 5
98 117 6
98 122 5
98 123 10
98 126 1
98 127 4
98 130 8
98 134 8
98 135 6
98 138 8
98 139 3
98 141 2
98 142 5
98 144 1
98 147 10
98 149 2
98 150 2
98 151 3
98 154 3
98 157 9
98 158 6
98 161 7
98 164 2
98 170 7
98 171 3
98 172 9
98 173 5
98 174 9
98 183 1
98 184 9
98 187 3
98 189 6
98 190 1
98 191 9
98 192 5
98 193 10
98 195 5
98 197 5
98 200 2
98 203 6
98 205 4
98 206 7
98 208 8
98 210 10
98 211 1
98 212 9
98 216 1
98 218 9
98 222 2
98 226 6
98 231 5
98 233 9
98 235 9
98 239 9
98 241 5
98 242 8
98 243 9
98 246 2
98 250 4
98 251 2
98 258 4
98 259 4
98 260 1
98 261 1
98 263 3
98 265 6
98 267 8
98 272 7
98 273 5
98 275 8
98 276 5
98 277 2
98 278 7
98 281 2
98 284 6
98 287 4
98 290 5
98 297 7
98 298 8
98 299 1
99 100 9
99 103 8
99 104 6
99 111 4
99 112 4
99 113 4
99 114 10
99 116 10
99 125 7
99 128 9
99 131 9
99 132 9
99 133 9
99 135 4
99 136 4
99 138 8
99 139 1
99 141 4
99 142 2
99 145 9
99 146 6
99 148 4
99 149 2
99 151 2
99 152 2
99 154 7
99 158 5
99 159 1
99 161 9
99 165 5
99 166 7
99 175 4
99 178 5
99 179 2
99 180 6
99 181 10
99 182 5
99 189 5
99 190 3
99 192 5
99 193 2
99 194 2
99 195 2
99 197 8
99 198 1
99 199 6
99 200 8
99 201 7
99 202 5
99 204 6
99 205 1
99 207 5
99 209 10
99 210 3
99 211 8
99 212 1
99 215 3
99 216 1
99 226 6
99 228 5
99 231 7
99 236 4
99 237 7
99 238 4
99 240 8
99 241 5
99 243 3
99 244 2
99 246 2
99 247 6
99 248 5
99 249 8
99 250 10
99 251 1
99 252 6
99 253 7
99 256 4
99 258 10
99 259 8
99 260 5
99 262 6
99 264 10
99 267 5
99 270 8
99 271 4
99 276 6
99 278 3
99 279 3
99 280 1
99 285 2
99 288 8
99 289 6
99 292 7
99 293 9
99 295 3
99 298 1
100 104 3
100 105 10
100 106 4
100 107 10
100 109 1
100 111 5
100 112 7
100 113 7
100 116 1
100 117 4
100 121 8
100 122 9
100 123 4
100 124 1
100 125 2
100 133 10
100 135 4
100 136 2
100 140 9
100 141 2
100 142 3
100 143 1
100 144 5
100 145 5
100 146 1
100 148 7
100 149 1
100 150 3
100 151 7
100 156 4
100 159 5
100 160 9
100 161 8
100 163 10
100 164 5
100 167 6
100 170 5
100 176 8
100 177 8
100 178 6
100 185 4
100 188 8
100 191 3
100 192 8
100 193 6
100 194 3
100 195 10
100 196 6
100 197 8
100 198 1
100 200 6
100 201 4
100 203 10
100 204 4
100 205 1
100 207 5
100 209 10
100 210 10
100 213 3
100 214 1
100 217 10
100 218 10
100 219 5
100 220 5
100 222 10
100 226 8
100 227 3
100 228 7
100 229 10
100 231 5
100 235 5
100 237 1
100 238 8
100 247 5
100 248 5
100 251 4
100 253 7
100 256 3
100 258 9
100 259 9
100 260 10
100 261 2
100 264 5
100 265 2
100 268 8
100 269 8
100 270 4
100 271 9
100 273 4
100 275 8
100 276 10
100 278 5
100 285 1
100 286 3
100 287 6
100 288 7
100 291 4
100 295 6
100 296 3
101 103 2
101 105 2
101 107 7
101 108 6
101 110 7
101 111 7
101 112 6
101 114 9
101 115 4
101 116 1
101 119 5
101 121 8
101 124 1
101 125 6
101 128 8
101 130 7
101 131 7
101 133 10
101 134 7
101 136 8
101 137 2
101 139 2
101 142 5
101 143 6
101 149 6
101 151 10
101 153 5
101 154 4
101 155 10
101 156 9
101 157 10
101 159 10
101 160 4
101 161 4
101 162 5
101 163 7
101 165 9
101 166 6
101 168 10
101 171 3
101 173 1
101 174 10
101 175 9
101 176 2
101 177 1
101 178 5
101 180 10
101 181 1
101 182 2
101 190 9
101 191 10
101 195 9
101 196 5
101 198 7
101 202 5
101 206 5
101 208 9
101 209 7
101 210 2
101 211 6
101 214 9
101 215 4
101 216 9
101 217 10
101 219 7
101 220 7
101 221 7
101 222 7
101 223 4
101 225 9
101 226 4
101 227 8
101 233 3
101 235 5
101 238 4
101 239 7
101 242 7
101 245 4
101 249 10
101 251 5
101 252 10
101 253 2
101 255 9
101 259 7
101 260 8
101 266 6
101 267 10
101 268 4
101 275 1
101 276 1
101 277 2
101 278 8
101 279 8
101 281 2
101 282 2
101 283 1
101 287 4
101 288 3
101 290 4
101 291 6
101 293 9
101 296 7
101 297 2
101 298 8
102 103 5
102 108 9
102 109 9
102 111 2
102 113 9
102 114 5
102 115 5
102 117 7
102 118 9
102 124 2
102 127 9
102 129 5
102 134 4
102 138 8
102 139 4
102 141 9
102 144 5
102 145 1
102 148 9
102 158 9
102 159 5
102 160 1
102 161 4
102 162 8
102 164 2
102 167 2
102 168 9
102 170 5
102 172 5
102 173 2
102 174 7
102 175 10
102 177 9
102 180 6
102 181 2
102 183 4
102 184 7
102 188 2
102 189 3
102 192 10
102 203 8
102 204 2
102 206 1
102 209 9
102 211 9
102 213 8
102 217 6
102 219 7
102 221 3
102 223 5
102 224 10
102 225 4
102 226 6
102 227 7
102 228 9
102 229 8
102 231 9
102 234 5
102 238 2
102 242 5
102 245 10
102 246 3
102 248 5
102 249 4
102 250 2
102 258 9
102 261 8
102 263 9
102 266 1
102 270 4
102 274 3
102 275 10
102 277 6
102 279 8
102 280 3
102 281 9
102 284 10
102 285 10
102 287 9
102 289 5
102 290 7
102 291 9
102 292 3
102 295 8
102 297 8
102 298 3
103 106 10
103 108 6
103 109 4
103 115 8
103 116 10
103 118 1
103 121 4
103 123 5
103 124 2
103 125 5
103 128 2
103 134 4
103 138 1
103 139 4
103 141 8
103 142 8
103 145 10
103 147 10
103 148 6
103 150 2
103 155 2
103 159 2
103 162 3
103 163 4
103 164 8
103 168 5
103 169 7
103 170 2
103 171 7
103 173 9
103 174 7
103 175 2
103 176 10
103 177 3
103 180 2
103 182 3
103 186 4
103 187 9
103 192 5
103 194 5
103 195 10
103 197 2
103 198 10
103 199 8
103 203 5
103 207 5
103 208 4
103 210 8
103 215 2
103 218 6
103 219 6
103 221 9
103 222 10
103 223 5
103 224 9
103 226 5
103 229 8
103 231 3
103 232 2
103 233 8
103 237 5
103 238 1
103 240 10
103 243 1
103 245 5
103 246 2
103 247 5
103 248 4
103 249 9
103 250 9
103 251 4
103 252 6
103 253 10
103 254 3
103 255 7
103 256 9
103 257 1
103 260 2
103 265 6
103 266 3
103 267 7
103 269 4
103 271 1
103 272 5
103 276 9
103 281 1
103 283 1
103 284 9
103 285 8
103 288 3
103 289 4
103 292 3
103 295 10
103 297 6
103 300 9
104 105 5
104 108 6
104 110 10
104 112 3
104 113 10
104 114 1
104 115 7
104 116 1
104 117 2
104 118 8
104 124 10
104 125 4
104 126 3
104 127 5
104 128 5
104 131 5
104 136 8
104 138 10
104 139 4
104 141 4
104 142 5
104 143 1
104 144 2
104 146 10
104 148 10
104 150 3
104 152 7
104 153 5
104 154 1
104 157 2
104 159 10
104 161 2
104 164 8
104 165 7
104 166 5
104 167 5
104 169 1
104 171 4
104 176 1
104 181 8
104 184 9
104 189 4
104 191 7
104 192 7
104 193 5
104 195 7
104 197 4
104 199 5
104 200 3
104 202 2
104 203 6
104 205 8
104 207 5
104 208 9
104 211 10
104 213 6
104 214 10
104 218 8
104 219 8
104 221 4
104 223 8
104 224 9
104 226 6
104 229 5
104 235 1
104 236 3
104 240 2
104 243 2
104 244 2
104 245 6
104 246 7
104 248 3
104 250 1
104 251 7
104 252 8
104 254 4
104 255 10
104 257 9
104 258 4
104 261 1
104 262 10
104 263 6
104 267 8
104 271 5
104 277 8
104 278 3
104 282 8
104 283 6
104 285 8
104 291 8
104 292 6
104 293 9
104 295 8
104 299 3
105 106 6
105 109 1
105 110 6
105 112 6
105 115 3
105 116 8
105 118 10
105 120 5
105 121 10
105 123 2
105 124 8
105 126 3
105 128 6
105 133 1
105 134 7
105 135 4
105 137 3
105 138 6
105 141 2
105 142 7
105 143 2
105 145 2
105 146 3
105 147 7
105 148 4
105 150 8
105 152 3
105 153 8
105 154 9
105 155 9
105 156 9
105 160 1
105 164 4
105 165 7
105 166 6
105 168 10
105 169 3
105 172 6
105 174 9
105 175 10
105 177 7
105 178 9
105 179 8
105 182 2
105 183 10
105 186 4
105 188 9
105 189 2
105 190 9
105 192 7
105 195 6
105 202 8
105 206 3
105 207 6
105 209 4
105 211 9
105 212 1
105 213 9
105 215 6
105 218 1
105 220 7
105 221 4
105 222 2
105 229 6
105 230 8
105 231 9
105 232 9
105 233 6
105 237 5
105 238 1
105 239 6
105 241 10
105 242 10
105 243 4
105 245 10
105 247 3
105 253 6
105 255 6
105 256 1
105 259 8
105 261 5
105 262 1
105 264 9
105 265 5
105 266 7
105 267 3
105 269 6
105 270 10
105 271 3
105 273 9
105 276 7
105 277 6
105 278 9
105 279 8
105 280 3
105 283 5
105 284 5
105 285 10
105 286 1
105 287 6
105 291 4
105 292 8
105 294 2
105 300 3
106 107 4
106 110 10
106 112 2
106 114 2
106 115 1
106 117 8
106 121 4
106 123 5
106 124 5
106 125 10
106 128 7
106 129 4
106 132 6
106 133 3
106 134 7
106 135 3
106 138 3
106 140 2
106 141 8
106 142 10
106 143 6
106 144 6
106 148 8
106 149 2
106 152 5
106 155 5
106 157 7
106 159 7
106 162 10
106 163 9
106 164 6
106 169 7
106 171 1
106 173 5
106 175 5
106 176 9
106 177 7
106 178 8
106 180 8
106 181 6
106 184 10
106 185 3
106 186 2
106 188 6
106 189 3
106 191 10
106 192 1
106 193 4
106 194 6
106 198 5
106 199 7
106 200 6
106 203 3
106 204 7
106 206 3
106 209 5
106 210 5
106 211 9
106 212 3
106 214 3
106 215 6
106 216 1
106 217 1
106 220 1
106 224 10
106 225 7
106 226 9
106 228 1
106 229 1
106 230 2
106 233 10
106 235 7
106 236 3
106 238 1
106 239 6
106 240 1
106 244 10
106 246 2
106 247 1
106 249 5
106 250 3
106 251 8
106 258 7
106 260 10
106 264 1
106 267 2
106 268 10
106 270 6
106 273 7
106 274 8
106 275 9
106 276 2
106 279 8
106 280 4
106 281 10
106 283 5
106 285 7
106 286 5
106 288 10
106 290 6
106 293 2
106 294 7
106 298 9
107 108 2
107 109 3
107 110 8
107 111 4
107 114 9
107 119 7
107 120 4
107 123 7
107 125 9
107 130 9
107 132 3
107 133 8
107 138 5
107 139 5
107 141 8
107 142 5
107 143 7
107 144 4
107 145 8
107 146 7
107 147 1
107 150 6
107 152 4
107 153 3
107 154 2
107 156 7
107 157 5
107 158 10
107 159 2
107 163 2
107 166 8
107 169 5
107 170 6
107 173 4
107 174 2
107 177 7
107 178 10
107 179 6
107 181 3
107 182 4
107 187 8
107 190 6
107 191 7
107 192 5
107 193 7
107 195 9
107 196 1
107 200 5
107 202 2
107 204 8
107 205 2
107 206 8
107 209 3
107 212 4
107 217 9
107 222 4
107 225 10
107 226 4
107 227 3
107 228 7
107 230 8
107 232 6
107 233 8
107 234 7
107 235 8
107 237 5
107 238 8
107 239 2
107 241 3
107 243 2
107 244 6
107 245 8
107 247 8
107 248 1
107 250 6
107 251 7
107 252 10
107 253 3
107 255 3
107 257 7
107 258 2
107 259 6
107 260 5
107 261 8
107 262 3
107 263 3
107 264 5
107 266 9
107 267 4
107 270 7
107 272 5
107 278 1
107 280 2
107 283 8
107 284 2
107 287 1
107 289 9
107 290 5
107 291 8
107 292 1
107 294 10
107 298 3
107 300 8
108 111 10
108 112 10
108 113 1
108 115 6
108 118 5
108 120 3
108 122 2
108 125 6
108 126 1
108 128 8
108 130 2
108 132 4
108 133 3
108 135 9
108 136 4
108 138 9
108 139 5
108 140 1
108 141 2
108 142 1
108 143 3
108 144 4
108 146 7
108 147 5
108 150 9
108 152 1
108 153 3
108 154 4
108 155 6
108 160 2
108 161 3
108 164 3
108 165 10
108 167 5
108 169 4
108 171 3
108 176 8
108 177 8
108 178 6
108 182 7
108 183 10
108 184 7
108 185 7
108 187 2
108 192 3
108 193 5
108 194 1
108 195 3
108 196 3
108 197 6
108 199 6
108 200 9
108 202 8
108 203 7
108 204 7
108 205 1
108 206 9
108 207 7
108 210 8
108 211 5
108 212 2
108 213 7
108 214 10
108 215 6
108 216 1
108 219 5
108 221 8
108 222 7
108 223 9
108 224 2
108 225 5
108 227 4
108 229 10
108 230 2
108 231 2
108 232 4
108 234 8
108 237 9
108 240 4
108 242 10
108 243 6
108 244 3
108 245 6
108 247 1
108 249 9
108 250 8
108 251 2
108 254 7
108 255 7
108 261 1
108 262 3
108 263 8
108 264 1
108 265 4
108 266 5
108 267 3
108 268 9
108 269 4
108 271 2
108 272 9
108 273 4
108 275 6
108 276 2
108 277 1
108 278 3
108 279 7
108 280 2
108 282 10
108 283 4
108 287 10
108 288 2
108 290 7
108 292 5
108 293 9
108 295 9
109 110 8
109 111 9
109 112 3
109 116 2
109 117 3
109 120 1
109 121 5
109 122 10
109 128 4
109 129 10
109 132 2
109 133 2
109 139 6
109 141 7
109 146 9
109 147 10
109 152 10
109 155 5
109 158 10
109 159 8
109 163 5
109 164 10
109 167 4
109 170 6
109 172 2
109 174 8
109 176 4
109 177 10
109 179 10
109 180 5
109 182 5
109 184 8
109 186 2
109 189 8
109 198 4
109 200 1
109 201 5
109 202 6
109 203 8
109 204 3
109 206 8
109 208 7
109 209 1
109 210 3
109 211 1
109 213 1
109 216 5
109 217 4
109 221 3
109 225 10
109 226 6
109 228 3
109 231 2
109 233 8
109 235 6
109 242 7
109 247 9
109 248 10
109 249 6
109 250 6
109 252 3
109 253 6
109 254 2
109 257 8
109 261 4
109 263 6
109 265 5
109 266 2
109 267 4
109 269 4
109 271 3
109 273 7
109 277 5
109 278 1
109 281 10
109 282 2
109 285 6
109 289 4
109 290 10
109 295 8
109 297 9
109 300 6
110 112 7
110 114 1
110 116 6
110 117 4
110 118 9
110 119 9
110 121 8
110 123 1
110 126 3
110 127 9
110 128 7
110 130 5
110 131 10
110 132 10
110 135 7
110 136 10
110 138 3
110 140 9
110 142 6
110 145 2
110 146 8
110 150 3
110 151 6
110 152 8
110 156 6
110 157 7
110 159 3
110 160 10
110 161 7
110 164 4
110 168 6
110 169 2
110 170 10
110 171 7
110 173 9
110 175 2
110 178 4
110 179 10
110 184 7
110 185 9
110 186 6
110 190 8
110 191 4
110 192 2
110 193 8
110 194 9
110 200 10
110 201 6
110 202 7
110 203 10
110 204 8
110 205 4
110 206 8
110 207 3
110 208 4
110 209 6
110 210 7
110 213 1
110 217 7
110 218 7
110 219 8
110 223 7
110 224 4
110 225 6
110 228 5
110 229 1
110 234 5
110 235 8
110 236 3
110 237 9
110 238 10
110 239 8
110 243 5
110 245 4
110 247 9
110 248 5
110 249 6
110 250 7
110 254 4
110 255 4
110 257 3
110 261 2
110 262 2
110 263 1
110 264 9
110 265 8
110 266 4
110 267 6
110 270 7
110 273 1
110 275 10
110 276 1
110 277 6
110 278 4
110 284 7
110 286 4
110 287 6
110 290 1
110 292 1
110 294 10
110 295 10
110 296 10
110 297 8
110 298 1
111 114 7
111 115 8
111 116 5
111 117 6
111 118 5
111 120 6
111 121 10
111 130 9
111 133 6
111 134 2
111 136 7
111 139 5
111 140 8
111 141 9
111 143 3
111 144 4
111 145 3
111 146 7
111 148 10
111 149 6
111 150 3
111 151 8
111 152 7
111 156 1
111 159 8
111 160 10
111 161 10
111 164 4
111 166 1
111 167 5
111 173 2
111 175 2
111 179 7
111 180 8
111 181 10
111 184 8
111 185 10
111 186 5
111 188 1
111 190 10
111 191 9
111 192 5
111 193 5
111 197 3
111 198 8
111 199 1
111 202 2
111 203 2
111 206 4
111 211 4
111 212 5
111 216 2
111 217 3
111 219 6
111 225 3
111 227 3
111 228 1
111 229 6
111 230 1
111 232 9
111 234 1
111 237 8
111 240 10
111 241 9
111 245 2
111 247 6
111 248 7
111 249 4
111 251 8
111 253 5
111 255 1
111 257 5
111 259 6
111 260 2
111 263 4
111 264 4
111 266 1
111 267 7
111 269 5
111 271 7
111 272 2
111 278 6
111 280 10
111 282 3
111 284 9
111 285 10
111 291 6
111 295 8
111 297 1
111 299 10
112 115 10
112 116 2
112 117 3
112 119 4
112 123 9
112 124 8
112 126 10
112 127 6
112 128 1
112 130 2
112 131 9
112 132 5
112 134 10
112 136 4
112 137 3
112 141 1
112 143 3
112 151 3
112 152 4
112 153 3
112 156 5
112 158 1
112 160 5
112 162 6
112 163 2
112 165 10
112 167 7
112 169 4
112 170 10
112 172 10
112 177 4
112 178 7
112 179 8
112 180 4
112 181 6
112 184 10
112 185 1
112 186 4
112 192 4
112 193 6
112 196 3
112 197 9
112 198 6
112 199 9
112 200 2
112 201 1
112 203 9
112 204 9
112 205 5
112 210 8
112 214 2
112 219 10
112 221 10
112 222 10
112 227 6
112 230 5
112 235 10
112 238 2
112 244 8
112 248 9
112 249 3
112 250 6
112 252 9
112 258 8
112 261 9
112 263 6
112 265 9
112 266 8
112 267 3
112 268 4
112 270 10
112 271 4
112 273 2
112 276 5
112 278 4
112 281 1
112 283 7
112 285 2
112 287 1
112 288 10
112 289 7
112 291 2
112 293 7
112 295 7
112 296 2
112 297 5
112 299 1
112 300 9
113 115 2
113 116 6
113 117 5
113 119 10
113 120 6
113 122 10
113 125 7
113 126 1
113 127 4
113 130 5
113 132 10
113 135 10
113 137 7
113 139 8
113 142 7
113 144 8
113 145 5
113 148 6
113 149 1
113 150 3
113 152 8
113 153 6
113 155 3
113 160 7
113 163 4
113 165 3
113 166 8
113 167 4
113 168 5
113 170 4
113 171 5
113 174 10
113 175 4
113 176 10
113 177 3
113 180 7
113 182 4
113 183 4
113 185 7
113 187 1
113 189 1
113 192 10
113 195 4
113 200 1
113 202 10
113 205 5
113 207 7
113 209 2
113 210 1
113 211 10
113 214 5
113 219 10
113 222 4
113 223 3
113 226 10
113 228 6
113 229 4
113 231 8
113 232 7
113 235 4
113 236 10
113 239 8
113 241 8
113 242 4
113 245 2
113 247 6
113 251 8
113 255 6
113 256 2
113 260 6
113 264 3
113 265 6
113 266 5
113 269 9
113 270 8
113 271 9
113 275 5
113 277 10
113 278 10
113 280 5
113 282 7
113 283 5
113 284 5
113 285 8
113 288 2
113 289 3
113 292 1
113 293 5
113 294 3
113 297 8
113 298 2
114 116 9
114 118 6
114 119 6
114 121 2
114 124 5
114 127 2
114 128 10
114 130 1
114 131 10
114 133 9
114 137 3
114 139 8
114 141 9
114 142 10
114 143 7
114 145 8
114 147 6
114 148 6
114 150 9
114 153 7
114 156 8
114 159 10
114 160 4
114 161 5
114 162 10
114 163 8
114 166 10
114 167 7
114 168 3
114 169 10
114 171 1
114 177 10
114 179 2
114 182 1
114 184 10
114 185 5
114 186 5
114 189 8
114 191 5
114 194 1
114 196 9
114 199 10
114 200 2
114 201 2
114 203 5
114 205 4
114 207 4
114 208 8
114 210 9
114 211 10
114 214 7
114 217 9
114 220 9
114 223 8
114 228 6
114 230 4
114 232 5
114 235 10
114 243 4
114 245 9
114 247 8
114 249 6
114 251 3
114 254 9
114 258 6
114 259 6
114 262 7
114 263 8
114 264 6
114 265 1
114 267 5
114 268 9
114 270 10
114 273 6
114 274 2
114 278 7
114 280 6
114 281 10
114 283 4
114 285 4
114 291 5
114 295 6
114 299 5
115 116 1
115 119 5
115 121 1
115 122 6
115 129 1
115 130 2
115 133 3
115 136 9
115 138 9
115 139 2
115 140 6
115 141 3
115 143 5
115 144 6
115 145 9
115 147 4
115 148 2
115 149 9
115 150 5
115 152 4
115 154 3
115 156 7
115 159 9
115 161 7
115 163 4
115 164 1
115 166 8
115 167 1
115 170 6
115 174 5
115 175 10
115 178 10
115 180 8
115 182 6
115 183 7
115 184 1
115 188 2
115 191 4
115 194 2
115 197 9
115 198 8
115 201 2
115 204 3
115 206 7
115 208 1
115 212 9
115 213 4
115 217 10
115 218 3
115 220 7
115 221 5
115 223 7
115 228 10
115 229 4
115 230 8
115 233 8
115 235 1
115 236 10
115 237 1
115 240 9
115 241 9
115 242 5
115 244 1
115 245 1
115 246 10
115 249 1
115 250 9
115 252 3
115 253 3
115 255 7
115 256 5
115 260 9
115 262 8
115 263 10
115 264 4
115 265 3
115 267 7
115 268 1
115 270 7
115 274 1
115 277 1
115 279 2
115 280 8
115 282 7
115 283 10
115 285 6
115 289 6
115 290 3
115 291 4
115 292 6
115 294 6
115 295 7
115 296 4
115 297 7
115 300 9
116 118 6
116 119 4
116 122 10
116 123 10
116 124 6
116 126 7
116 127 4
116 128 10
116 131 7
116 132 6
116 133 8
116 134 9
116 136 9
116 137 8
116 138 8
116 142 3
116 143 5
116 149 6
116 151 9
116 152 10
116 154 2
116 155 6
116 156 4
116 162 6
116 164 4
116 165 4
116 166 2
116 169 2
116 173 8
116 174 3
116 176 10
116 180 9
116 181 7
116 183 1
116 185 8
116 186 5
116 190 7
116 192 4
116 193 1
116 194 10
116 195 7
116 200 5
116 201 9
116 202 2
116 203 10
116 204 7
116 205 9
116 206 4
116 207 1
116 210 6
116 213 1
116 214 4
116 215 7
116 218 10
116 221 5
116 224 7
116 225 9
116 226 7
116 227 2
116 229 5
116 230 1
116 231 6
116 232 1
116 233 8
116 234 7
116 235 8
116 236 4
116 237 1
116 239 4
116 242 2
116 245 1
116 246 9
116 248 7
116 250 4
116 251 4
116 252 2
116 253 1
116 254 5
116 257 5
116 259 4
116 260 9
116 261 2
116 262 1
116 263 10
116 264 10
116 266 8
116 267 1
116 270 8
116 272 9
116 273 8
116 275 10
116 276 2
116 277 6
116 279 5
116 282 10
116 284 6
116 286 4
116 288 1
116 289 2
116 290 8
116 291 10
116 292 3
116 294 8
116 295 1
116 300 8
117 120 7
117 123 4
117 124 8
117 128 10
117 129 5
117 130 7
117 131 8
117 132 7
117 135 8
117 137 3
117 139 5
117 142 10
117 143 10
117 145 9
117 150 7
117 155 7
117 158 1
117 159 1
117 160 3
117 161 5
117 162 5
117 165 5
117 168 8
117 170 4
117 171 3
117 172 8
117 174 6
117 176 2
117 177 6
117 178 10
117 179 5
117 180 9
117 181 4
117 184 8
117 185 1
117 186 4
117 188 4
117 189 9
117 195 10
117 197 1
117 199 6
117 200 7
117 201 2
117 202 8
117 204 9
117 206 9
117 207 6
117 209 6
117 210 10
117 212 8
117 214 7
117 217 9
117 218 7
117 219 2
117 220 6
117 222 9
117 223 3
117 224 2
117 227 1
117 228 8
117 229 5
117 231 6
117 232 2
117 235 4
117 238 9
117 241 3
117 243 7
117 248 5
117 251 6
117 254 3
117 257 8
117 258 1
117 259 8
117 260 5
117 261 2
117 262 3
117 265 5
117 268 3
117 271 3
117 273 6
117 274 10
117 275 5
117 277 6
117 278 8
117 280 3
117 281 5
117 282 5
117 285 7
117 287 7
117 288 8
117 290 4
117 291 1
117 294 1
117 298 10
117 299 6
118 120 9
118 121 1
118 122 7
118 128 3
118 129 4
118 131 1
118 132 2
118 134 1
118 136 1
118 138 2
118 139 2
118 141 8
118 142 5
118 143 8
118 144 5
118 146 5
118 148 4
118 152 7
118 153 2
118 155 10
118 157 9
118 158 10
118 159 10
118 163 10
118 164 6
118 165 8
118 167 4
118 169 2
118 171 2
118 172 2
118 174 7
118 178 3
118 180 4
118 183 6
118 184 4
118 185 7
118 188 6
118 190 4
118 192 8
118 195 7
118 196 7
118 197 10
118 203 10
118 204 1
118 207 7
118 210 1
118 211 4
118 214 4
118 216 8
118 217 9
118 221 2
118 222 5
118 224 2
118 225 1
118 227 6
118 231 8
118 232 4
118 233 7
118 236 10
118 237 6
118 238 10
118 239 7
118 245 7
118 246 1
118 252 4
118 253 9
118 256 3
118 257 7
118 260 1
118 262 7
118 263 6
118 267 6
118 268 6
118 271 4
118 273 4
118 275 10
118 276 8
118 277 6
118 278 3
118 279 10
118 280 6
118 282 7
118 284 6
118 285 5
118 287 1
118 288 9
118 289 7
118 290 2
118 291 10
118 294 7
118 295 5
118 296 4
118 297 9
118 299 10
118 300 9
119 121 9
119 122 10
119 123 9
119 124 10
119 126 4
119 128 4
119 130 3
119 133 10
119 134 10
119 136 3
119 138 8
119 142 2
119 143 2
119 147 8
119 148 7
119 149 2
119 151 2
119 152 9
119 153 5
119 155 7
119 156 1
119 158 9
119 161 4
119 163 1
119 164 6
119 165 6
119 166 8
119 167 8
119 168 10
119 169 9
119 171 4
119 173 9
119 174 6
119 175 8
119 176 2
119 178 2
119 179 1
119 186 3
119 187 2
119 189 8
119 191 3
119 194 1
119 195 7
119 198 2
119 199 10
119 203 4
119 205 4
119 206 1
119 208 8
119 209 9
119 210 1
119 212 5
119 213 9
119 217 7
119 220 6
119 222 6
119 224 9
119 225 5
119 226 10
119 229 6
119 231 3
119 232 3
119 235 6
119 237 6
119 239 4
119 240 5
119 243 9
119 246 1
119 249 4
119 250 3
119 251 3
119 255 5
119 256 8
119 264 2
119 265 1
119 268 6
119 271 1
119 273 4
119 274 2
119 275 8
119 279 2
119 280 1
119 282 2
119 284 3
119 285 4
119 286 3
119 287 6
119 289 7
119 290 7
119 291 5
119 295 1
119 297 10
119 299 7
119 300 7
120 121 5
120 124 3
120 127 5
120 128 6
120 133 8
120 138 6
120 139 9
120 143 5
120 144 2
120 145 10
120 146 10
120 147 9
120 148 6
120 149 2
120 153 2
120 156 10
120 159 9
120 165 4
120 167 7
120 171 5
120 175 4
120 176 4
120 177 3
120 180 4
120 181 9
120 184 8
120 190 9
120 192 8
120 194 4
120 195 8
120 196 2
120 198 2
120 199 10
120 202 8
120 203 2
120 204 10
120 208 4
120 209 4
120 211 5
120 212 1
120 213 7
120 215 6
120 216 3
120 219 2
120 220 3
120 222 5
120 224 2
120 225 10
120 226 10
120 230 8
120 231 4
120 232 1
120 233 1
120 234 8
120 238 2
120 239 4
120 241 9
120 242 1
120 243 4
120 244 8
120 245 5
120 246 3
120 247 5
120 250 4
120 251 8
120 252 8
120 253 3
120 254 6
120 256 9
120 257 5
120 260 3
120 262 6
120 264 8
120 267 9
120 268 7
120 270 10
120 272 3
120 273 10
120 276 8
120 279 7
120 281 3
120 283 2
120 284 4
120 290 5
120 292 2
120 293 10
120 297 5
120 299 6
120 300 5
121 122 10
121 123 6
121 124 3
121 129 5
121 130 3
121 133 7
121 135 4
121 138 5
121 144 1
121 145 8
121 146 4
121 147 9
121 149 2
121 150 4
121 152 10
121 153 7
121 154 1
121 155 2
121 157 7
121 159 6
121 160 5
121 162 8
121 163 6
121 164 2
121 165 7
121 167 2
121 168 10
121 169 8
121 170 7
121 173 7
121 175 5
121 177 8
121 178 5
121 180 6
121 181 10
121 182 2
121 187 3
121 189 4
121 191 4
121 192 9
121 193 7
121 197 1
121 200 9
121 202 9
121 206 10
121 207 1
121 208 4
121 210 7
121 211 8
121 213 1
121 214 9
121 216 6
121 217 5
121 221 2
121 224 10
121 225 4
121 226 4
121 229 10
121 231 4
121 232 10
121 233 10
121 234 7
121 235 6
121 237 7
121 238 6
121 240 7
121 242 1
121 245 9
121 247 9
121 248 8
121 254 7
121 256 5
121 258 3
121 259 7
121 260 7
121 261 4
121 265 6
121 266 9
121 267 5
121 268 4
121 269 5
121 275 9
121 277 9
121 279 3
121 282 2
121 283 1
121 284 7
121 285 5
121 289 5
121 290 8
121 295 10
121 296 3
121 298 3
121 299 1
121 300 9
122 123 10
122 125 1
122 126 4
122 127 4
122 128 6
122 131 4
122 133 1
122 134 6
122 136 3
122 138 2
122 139 5
122 144 10
122 149 6
122 150 9
122 152 5
122 153 3
122 156 10
122 157 10
122 158 3
122 164 4
122 167 4
122 169 3
122 170 10
122 172 3
122 173 2
122 178 9
122 179 3
122 180 2
122 182 1
122 183 5
122 184 9
122 187 9
122 188 5
122 189 7
122 190 4
122 193 9
122 194 2
122 196 3
122 197 4
122 200 9
122 201 5
122 203 8
122 204 1
122 207 8
122 208 1
122 210 8
122 212 1
122 215 7
122 218 6
122 219 10
122 220 3
122 222 6
122 223 1
122 224 6
122 225 1
122 226 5
122 227 6
122 228 4
122 232 3
122 233 6
122 234 3
122 235 3
122 236 6
122 240 4
122 241 5
122 242 8
122 243 1
122 245 1
122 246 9
122 247 1
122 249 7
122 251 2
122 254 1
122 255 4
122 256 5
122 257 10
122 259 7
122 260 9
122 263 6
122 265 8
122 266 2
122 267 8
122 269 8
122 273 2
122 274 10
122 280 6
122 282 5
122 283 8
122 285 4
122 286 6
122 289 1
122 290 9
122 292 8
122 294 7
122 295 7
122 296 6
122 297 1
122 298 10
122 299 5
122 300 8
123 126 9
123 127 6
123 129 8
123 131 7
123 132 7
123 135 7
123 137 2
123 139 4
123 140 6
123 142 7
123 145 2
123 150 8
123 151 10
123 154 4
123 155 5
123 159 8
123 161 5
123 162 10
123 163 2
123 164 9
123 165 2
123 166 10
123 167 5
123 168 5
123 170 2
123 174 6
123 175 2
123 177 1
123 178 5
123 180 8
123 181 7
123 182 2
123 183 3
123 185 5
123 186 10
123 191 10
123 193 6
123 194 10
123 195 4
123 197 5
123 198 1
123 200 7
123 202 4
123 204 9
123 205 1
123 206 9
123 208 10
123 209 10
123 210 2
123 211 10
123 214 6
123 216 5
123 224 8
123 225 5
123 226 5
123 229 5
123 230 4
123 231 2
123 235 5
123 238 10
123 240 1
123 244 2
123 245 6
123 249 7
123 253 1
123 254 1
123 255 8
123 256 1
123 257 5
123 259 4
123 260 6
123 261 10
123 264 2
123 265 8
123 266 10
123 267 2
123 269 6
123 270 2
123 271 3
123 272 9
123 274 8
123 278 6
123 279 1
123 281 4
123 284 3
123 285 4
123 287 4
123 288 9
123 289 10
123 290 3
123 291 7
123 294 1
123 295 6
123 297 6
123 298 3
123 300 2
124 125 1
124 126 8
124 128 6
124 129 10
124 130 5
124 131 8
124 134 2
124 136 8
124 137 4
124 143 3
124 145 3
124 146 8
124 148 7
124 152 4
124 153 3
124 155 4
124 156 4
124 158 7
124 159 2
124 160 2
124 164 3
124 165 3
124 169 5
124 172 4
124 173 6
124 178 3
124 181 8
124 186 4
124 188 8
124 190 4
124 191 10
124 192 3
124 193 3
124 197 6
124 199 10
124 200 6
124 201 1
124 203 7
124 204 2
124 205 3
124 206 9
124 207 8
124 209 6
124 210 9
124 212 1
124 213 8
124 218 3
124 219 2
124 220 6
124 221 1
124 224 4
124 225 5
124 226 3
124 227 1
124 228 1
124 232 6
124 233 1
124 236 6
124 237 5
124 238 7
124 242 1
124 245 9
124 250 2
124 251 6
124 252 8
124 254 9
124 255 5
124 257 9
124 260 3
124 262 9
124 264 2
124 266 1
124 267 9
124 269 8
124 271 8
124 274 7
124 276 5
124 278 9
124 280 2
124 285 1
124 289 1
124 293 4
124 296 4
124 299 7
124 300 9
125 126 10
125 129 7
125 130 6
125 135 10
125 137 2
125 138 1
125 140 10
125 141 1
125 143 8
125 145 9
125 146 3
125 148 2
125 149 8
125 150 4
125 152 1
125 153 8
125 155 10
125 156 6
125 158 1
125 160 1
125 161 10
125 162 2
125 165 3
125 166 3
125 171 4
125 172 8
125 173 4
125 174 6
125 175 8
125 176 4
125 180 3
125 181 1
125 183 5
125 186 1
125 187 7
125 188 3
125 189 1
125 190 10
125 192 5
125 195 9
125 198 5
125 199 10
125 207 6
125 208 4
125 209 7
125 211 8
125 214 4
125 215 5
125 217 8
125 218 6
125 219 6
125 222 6
125 223 7
125 225 10
125 226 7
125 228 3
125 230 10
125 232 6
125 233 3
125 236 6
125 237 6
125 239 6
125 240 5
125 242 6
125 243 9
125 244 3
125 247 6
125 248 4
125 250 3
125 254 8
125 256 7
125 257 6
125 259 6
125 260 4
125 262 9
125 264 6
125 265 7
125 269 7
125 271 4
125 272 5
125 273 2
125 275 4
125 276 4
125 278 4
125 281 2
125 283 7
125 284 10
125 285 8
125 287 2
125 288 10
125 289 7
125 290 9
125 292 2
125 297 10
125 299 3
125 300 4
126 127 4
126 128 5
126 129 2
126 130 10
126 131 3
126 132 5
126 133 7
126 134 4
126 137 9
126 138 2
126 140 1
126 143 3
126 147 9
126 149 2
126 151 10
126 157 2
126 158 10
126 159 7
126 160 2
126 161 5
126 162 3
126 166 9
126 167 9
126 169 9
126 172 2
126 175 4
126 176 3
126 177 1
126 180 6
126 181 8
126 185 5
126 186 8
126 190 8
126 191 1
126 192 6
126 193 2
126 194 10
126 200 4
126 201 5
126 202 7
126 203 9
126 207 8
126 208 2
126 210 8
126 211 10
126 216 2
126 217 8
126 218 7
126 219 10
126 222 2
126 223 8
126 224 5
126 228 3
126 230 3
126 231 4
126 233 7
126 236 5
126 237 9
126 241 8
126 242 10
126 244 6
126 245 5
126 247 2
126 250 6
126 251 1
126 252 7
126 255 9
126 259 7
126 260 10
126 261 3
126 262 5
126 264 6
126 265 5
126 266 6
126 267 4
126 268 2
126 269 8
126 271 7
126 273 8
126 274 5
126 276 5
126 280 2
126 281 7
126 287 10
126 289 7
126 290 4
126 293 7
126 295 8
126 297 4
126 298 10
126 299 3
127 131 4
127 132 10
127 133 10
127 134 10
127 136 1
127 137 1
127 138 2
127 142 2
127 143 9
127 144 5
127 147 1
127 148 7
127 154 7
127 157 3
127 159 4
127 160 3
127 162 1
127 163 8
127 165 5
127 166 4
127 167 4
127 168 5
127 169 5
127 172 9
127 173 4
127 175 4
127 179 6
127 180 6
127 181 6
127 184 1
127 186 4
127 187 10
127 188 2
127 190 8
127 195 4
127 197 10
127 198 4
127 199 7
127 201 5
127 202 5
127 203 10
127 204 3
127 206 5
127 207 10
127 208 5
127 209 1
127 211 6
127 214 2
127 218 7
127 219 1
127 221 8
127 224 5
127 225 9
127 226 10
127 232 8
127 235 7
127 237 7
127 238 10
127 239 4
127 240 9
127 241 3
127 242 4
127 243 1
127 244 9
127 245 9
127 247 8
127 250 4
127 251 10
127 253 6
127 255 3
127 256 10
127 257 10
127 261 9
127 262 1
127 263 9
127 264 4
127 265 10
127 266 9
127 267 8
127 268 8
127 269 9
127 274 8
127 276 5
127 277 5
127 278 10
127 279 4
127 281 4
127 282 10
127 283 2
127 284 9
127 285 4
127 286 1
127 287 8
127 289 2
127 292 3
127 295 6
127 298 10
128 129 4
128 132 3
128 133 9
128 134 5
128 135 3
128 136 6
128 137 5
128 139 8
128 141 4
128 145 1
128 147 6
128 149 3
128 150 7
128 152 7
128 155 3
128 156 8
128 160 3
128 162 1
128 163 4
128 164 10
128 169 10
128 170 1
128 174 2
128 176 1
128 178 7
128 179 3
128 180 5
128 184 3
128 185 10
128 186 8
128 187 10
128 188 8
128 189 3
128 190 5
128 193 5
128 198 8
128 199 1
128 200 3
128 203 3
128 204 8
128 207 4
128 209 1
128 210 7
128 212 8
128 214 9
128 218 7
128 219 7
128 220 2
128 221 6
128 224 5
128 225 2
128 227 10
128 231 8
128 233 7
128 237 4
128 240 9
128 243 6
128 252 1
128 253 4
128 261 3
128 264 7
128 268 3
128 275 5
128 278 4
128 281 7
128 284 1
128 288 2
128 289 4
128 292 3
128 295 8
128 297 10
129 130 7
129 137 7
129 138 2
129 141 3
129 151 10
129 152 1
129 154 9
129 155 6
129 158 10
129 159 3
129 160 4
129 164 10
129 165 8
129 166 7
129 169 8
129 170 10
129 173 9
129 174 3
129 181 1
129 184 5
129 185 3
129 186 5
129 187 9
129 188 2
129 189 5
129 190 1
129 192 3
129 194 5
129 200 4
129 202 2
129 204 4
129 207 9
129 209 4
129 211 10
129 212 8
129 214 10
129 215 9
129 216 6
129 217 5
129 218 8
129 219 4
129 221 9
129 222 8
129 223 2
129 226 6
129 228 4
129 230 7
129 234 6
129 236 4
129 237 1
129 239 9
129 240 9
129 248 9
129 250 8
129 251 9
129 253 3
129 255 5
129 256 5
129 257 5
129 258 1
129 259 9
129 260 6
129 262 4
129 266 6
129 271 8
129 272 6
129 273 5
129 275 6
129 277 1
129 278 10
129 282 8
129 288 3
129 290 3
129 292 2
129 294 6
129 295 6
129 296 3
129 300 1
130 133 8
130 135 2
130 136 1
130 137 1
130 139 5
130 140 6
130 141 5
130 142 9
130 143 9
130 144 9
130 145 3
130 146 7
130 148 10
130 150 5
130 151 3
130 153 5
130 154 1
130 157 8
130 158 4
130 159 4
130 161 2
130 162 7
130 166 10
130 169 8
130 170 5
130 171 8
130 174 7
130 176 3
130 179 10
130 181 1
130 182 4
130 183 1
130 184 2
130 185 6
130 187 5
130 188 10
130 189 4
130 193 6
130 194 2
130 195 6
130 197 2
130 198 4
130 199 4
130 201 4
130 203 1
130 204 6
130 206 2
130 207 6
130 208 4
130 209 10
130 213 7
130 218 6
130 219 10
130 224 5
130 225 9
130 227 8
130 230 1
130 231 6
130 232 6
130 233 9
130 234 6
130 235 7
130 238 5
130 239 9
130 240 1
130 242 4
130 243 4
130 244 4
130 245 4
130 246 2
130 247 8
130 249 1
130 252 10
130 253 4
130 254 5
130 258 1
130 261 5
130 264 5
130 265 8
130 270 1
130 271 10
130 272 2
130 273 5
130 274 8
130 275 1
130 282 7
130 285 1
130 288 7
130 292 10
130 293 10
130 295 8
130 296 10
130 297 9
130 299 8
130 300 5
131 134 7
131 136 8
131 138 3
131 140 6
131 141 4
131 142 5
131 144 1
131 145 2
131 146 4
131 152 6
131 155 7
131 156 9
131 157 6
131 158 2
131 164 2
131 169 6
131 171 5
131 172 4
131 173 5
131 178 7
131 185 7
131 186 4
131 187 6
131 189 2
131 190 6
131 191 10
131 192 4
131 193 1
131 197 2
131 199 6
131 200 7
131 203 7
131 208 3
131 209 8
131 210 5
131 212 1
131 213 1
131 215 2
131 216 9
131 218 7
131 220 3
131 221 2
131 222 7
131 223 3
131 226 9
131 227 6
131 229 7
131 232 7
131 234 3
131 238 6
131 241 2
131 242 6
131 244 8
131 245 9
131 247 5
131 249 3
131 251 6
131 254 8
131 256 6
131 257 5
131 259 9
131 261 8
131 262 4
131 263 3
131 266 7
131 269 5
131 272 5
131 274 6
131 275 5
131 276 8
131 279 7
131 280 2
131 281 1
131 284 6
131 286 4
131 288 5
131 290 2
131 293 8
131 294 3
131 298 7
131 299 7
131 300 10
132 135 10
132 138 1
132 140 1
132 141 10
132 142 9
132 144 10
132 147 1
132 149 4
132 157 5
132 158 8
132 159 1
132 162 7
132 164 3
132 169 9
132 170 2
132 172 5
132 173 6
132 179 8
132 180 1
132 181 7
132 182 6
132 184 4
132 189 10
132 190 9
132 191 8
132 193 7
132 194 1
132 196 2
132 197 8
132 198 4
132 199 8
132 200 6
132 201 6
132 202 1
132 206 6
132 207 6
132 211 4
132 212 10
132 213 9
132 215 4
132 217 1
132 220 10
132 221 5
132 222 3
132 228 5
132 231 5
132 232 1
132 233 3
132 235 9
132 236 8
132 238 5
132 242 9
132 243 5
132 244 1
132 246 6
132 247 6
132 249 3
132 250 8
132 252 9
132 253 3
132 254 6
132 255 3
132 257 8
132 260 6
132 261 8
132 262 6
132 263 8
132 264 6
132 265 3
132 266 8
132 270 10
132 271 2
132 274 1
132 275 3
132 277 2
132 278 5
132 279 7
132 281 7
132 282 5
132 283 2
132 284 2
132 285 8
132 288 6
132 290 4
132 291 10
132 292 2
132 293 5
132 294 5
132 297 10
132 298 3
132 299 7
133 134 9
133 135 4
133 139 8
133 140 6
133 141 9
133 143 5
133 144 2
133 145 9
133 147 3
133 148 7
133 151 4
133 152 1
133 153 5
133 155 8
133 156 5
133 161 8
133 164 8
133 166 10
133 167 10
133 175 5
133 181 6
133 182 10
133 183 7
133 184 4
133 185 4
133 186 8
133 187 7
133 188 2
133 189 8
133 190 8
133 191 3
133 195 6
133 197 4
133 199 9
133 201 1
133 202 1
133 203 8
133 205 3
133 208 8
133 209 9
133 211 9
133 217 5
133 220 4
133 225 10
133 226 7
133 227 5
133 230 3
133 231 6
133 232 5
133 233 7
133 234 10
133 236 8
133 239 7
133 240 7
133 242 2
133 243 1
133 244 5
133 248 2
133 250 9
133 251 4
133 252 10
133 256 2
133 257 10
133 258 3
133 267 7
133 269 10
133 272 5
133 273 3
133 275 4
133 276 5
133 278 6
133 280 2
133 283 6
133 284 3
133 287 1
133 289 6
133 292 3
133 293 8
133 294 9
133 295 3
133 298 10
133 300 4
134 135 5
134 136 5
134 139 4
134 141 9
134 143 10
134 144 10
134 146 1
134 147 6
134 148 10
134 150 2
134 156 1
134 158 3
134 161 8
134 164 2
134 165 7
134 170 10
134 173 6
134 175 2
134 176 5
134 179 8
134 180 2
134 181 3
134 183 10
134 184 1
134 187 10
134 188 5
134 195 5
134 199 4
134 201 8
134 202 6
134 203 1
134 204 8
134 208 9
134 213 6
134 218 8
134 219 9
134 220 1
134 222 2
134 223 10
134 225 9
134 226 4
134 228 9
134 229 8
134 237 7
134 238 3
134 240 7
134 241 2
134 246 6
134 248 10
134 254 3
134 255 10
134 257 9
134 258 2
134 259 5
134 261 6
134 262 7
134 263 9
134 266 2
134 267 7
134 271 7
134 272 3
134 274 7
134 275 10
134 276 10
134 277 8
134 278 1
134 279 4
134 281 9
134 284 10
134 288 5
134 289 2
134 291 3
134 292 9
134 293 6
134 295 3
134 297 9
134 299 7
134 300 2
135 136 4
135 139 6
135 140 10
135 142 5
135 150 5
135 151 4
135 152 9
135 153 9
135 154 6
135 158 6
135 161 9
135 163 5
135 164 7
135 165 6
135 169 4
135 170 10
135 172 7
135 174 4
135 179 10
135 183 4
135 184 3
135 189 5
135 191 8
135 192 7
135 193 6
135 195 7
135 196 10
135 198 8
135 200 3
135 201 4
135 204 3
135 205 7
135 209 3
135 210 6
135 211 1
135 212 2
135 214 5
135 215 8
135 216 7
135 217 3
135 218 5
135 219 8
135 220 7
135 221 1
135 222 9
135 226 4
135 227 9
135 233 2
135 235 6
135 237 10
135 240 5
135 241 10
135 242 8
135 244 3
135 246 2
135 249 10
135 250 3
135 251 9
135 252 8
135 253 8
135 254 3
135 255 9
135 258 4
135 259 1
135 260 10
135 261 1
135 262 6
135 264 2
135 267 2
135 269 4
135 270 2
135 272 5
135 273 10
135 274 4
135 275 2
135 276 8
135 277 9
135 280 5
135 281 1
135 282 7
135 283 10
135 288 3
135 292 1
135 295 5
135 296 6
135 298 6
136 138 9
136 139 8
136 141 5
136 142 6
136 148 1
136 149 10
136 151 7
136 153 3
136 154 4
136 158 2
136 159 7
136 160 2
136 163 4
136 165 4
136 166 8
136 170 8
136 171 3
136 173 9
136 174 5
136 175 6
136 187 7
136 188 2
136 189 2
136 190 1
136 191 8
136 196 5
136 200 4
136 204 2
136 205 1
136 206 4
136 207 1
136 208 1
136 210 6
136 213 1
136 214 1
136 216 4
136 221 5
136 222 7
136 223 8
136 224 7
136 225 5
136 226 10
136 228 10
136 230 5
136 231 10
136 234 8
136 235 3
136 243 4
136 245 7
136 246 8
136 247 4
136 250 2
136 251 1
136 254 6
136 256 3
136 257 10
136 258 1
136 264 4
136 265 5
136 266 3
136 267 8
136 271 1
136 272 1
136 275 9
136 277 9
136 280 1
136 282 2
136 283 1
136 291 10
136 292 2
136 294 2
136 296 10
136 299 3
136 300 8
137 139 4
137 140 7
137 144 6
137 145 2
137 147 4
137 148 7
137 149 1
137 150 10
137 151 10
137 152 2
137 153 7
137 154 10
137 155 5
137 157 1
137 160 7
137 161 2
137 162 10
137 163 7
137 165 5
137 172 7
137 175 8
137 176 6
137 182 7
137 183 5
137 193 10
137 195 5
137 197 6
137 198 10
137 199 7
137 201 3
137 204 9
137 205 9
137 211 6
137 212 7
137 213 6
137 214 3
137 215 10
137 217 8
137 218 9
137 219 2
137 220 2
137 221 5
137 223 3
137 225 2
137 226 2
137 227 4
137 230 6
137 231 7
137 235 6
137 239 6
137 244 3
137 246 9
137 249 7
137 253 10
137 254 5
137 256 10
137 257 9
137 260 5
137 261 3
137 262 6
137 263 10
137 266 5
137 268 8
137 270 2
137 271 4
137 272 8
137 273 8
137 275 1
137 276 4
137 281 8
137 283 8
137 285 7
137 286 5
137 288 1
137 289 5
137 290 9
137 292 6
137 297 9
137 298 4
137 300 2
138 140 8
138 141 2
138 143 4
138 145 7
138 146 9
138 148 7
138 150 5
138 154 4
138 155 6
138 156 6
138 157 2
138 158 5
138 159 4
138 161 7
138 162 9
138 164 6
138 166 7
138 170 5
138 172 1
138 177 1
138 179 2
138 180 5
138 181 9
138 183 7
138 187 1
138 190 4
138 192 6
138 193 8
138 195 4
138 196 6
138 197 8
138 198 9
138 201 7
138 202 2
138 203 10
138 204 10
138 205 5
138 206 8
138 208 6
138 210 5
138 211 4
138 212 10
138 213 4
138 214 1
138 215 10
138 216 10
138 218 2
138 220 2
138 223 2
138 225 5
138 226 1
138 228 5
138 229 5
138 230 3
138 231 2
138 233 7
138 237 4
138 238 7
138 239 9
138 241 4
138 242 9
138 243 7
138 244 7
138 245 4
138 246 10
138 247 2
138 248 6
138 250 5
138 253 1
138 254 5
138 257 9
138 260 4
138 262 2
138 263 8
138 264 4
138 266 4
138 267 5
138 268 7
138 271 7
138 273 4
138 274 1
138 277 5
138 279 5
138 280 2
138 281 8
138 282 2
138 285 6
138 286 9
138 288 7
138 289 3
138 293 6
138 294 7
138 296 3
138 299 4
139 140 5
139 144 7
139 145 10
139 149 3
139 150 10
139 153 4
139 156 8
139 157 2
139 159 1
139 160 10
139 165 8
139 166 2
139 167 10
139 168 8
139 169 6
139 170 5
139 171 7
139 172 3
139 174 10
139 176 3
139 177 6
139 178 6
139 181 3
139 182 3
139 183 6
139 187 4
139 188 10
139 189 3
139 191 3
139 193 5
139 195 1
139 197 1
139 199 7
139 200 10
139 201 5
139 202 5
139 205 5
139 207 5
139 208 2
139 209 10
139 210 2
139 212 8
139 215 8
139 219 7
139 221 2
139 225 4
139 226 3
139 230 1
139 231 6
139 232 1
139 233 2
139 234 8
139 236 10
139 237 1
139 239 5
139 242 9
139 244 7
139 246 9
139 247 9
139 248 8
139 249 10
139 252 5
139 258 7
139 261 10
139 262 10
139 263 10
139 265 3
139 266 6
139 269 2
139 274 2
139 275 7
139 276 8
139 277 4
139 278 8
139 279 2
139 286 6
139 287 3
139 290 6
139 291 8
139 292 8
139 293 7
139 294 1
139 296 5
139 297 5
139 298 1
139 299 8
139 300 4
140 141 9
140 142 6
140 143 8
140 149 6
140 150 2
140 151 5
140 152 1
140 153 3
140 154 3
140 156 10
140 157 3
140 159 8
140 160 5
140 161 9
140 162 2
140 164 1
140 165 7
140 171 6
140 172 4
140 176 1
140 177 2
140 178 5
140 179 1
140 185 9
140 186 2
140 187 1
140 189 4
140 192 3
140 194 1
140 196 1
140 197 5
140 198 10
140 199 1
140 202 1
140 204 1
140 214 7
140 215 2
140 217 2
140 220 8
140 223 3
140 224 8
140 227 10
140 228 6
140 229 5
140 233 2
140 238 3
140 239 6
140 240 7
140 243 7
140 246 2
140 248 9
140 250 8
140 252 7
140 253 2
140 254 2
140 256 8
140 257 9
140 258 1
140 259 5
140 260 7
140 261 10
140 262 2
140 267 2
140 268 9
140 269 5
140 270 10
140 271 8
140 272 7
140 274 7
140 277 2
140 278 5
140 280 5
140 281 9
140 283 2
140 284 3
140 286 2
140 287 6
140 288 9
140 290 2
140 291 1
140 292 8
140 295 10
140 300 3
141 143 6
141 145 1
141 146 5
141 147 6
141 148 4
141 149 7
141 150 7
141 151 4
141 157 9
141 161 7
141 164 5
141 165 9
141 166 8
141 167 4
141 172 1
141 173 2
141 174 3
141 175 10
141 176 1
141 177 9
141 178 2
141 179 7
141 181 4
141 183 6
141 185 4
141 186 5
141 187 2
141 191 5
141 192 9
141 196 2
141 200 8
141 202 4
141 203 5
141 204 9
141 207 8
141 208 1
141 209 2
141 210 9
141 211 5
141 218 5
141 222 9
141 224 1
141 225 4
141 228 2
141 229 9
141 230 5
141 233 7
141 234 10
141 235 9
141 237 5
141 238 7
141 239 1
141 240 7
141 242 8
141 243 9
141 245 7
141 246 4
141 247 7
141 249 3
141 250 4
141 252 2
141 257 1
141 259 4
141 262 6
141 263 5
141 264 3
141 265 10
141 268 9
141 269 7
141 271 9
141 274 10
141 275 8
141 276 1
141 278 6
141 279 1
141 281 4
141 283 5
141 284 2
141 285 3
141 286 9
141 287 3
141 288 10
141 289 10
141 294 3
141 296 4
141 299 3
141 300 7
142 143 3
142 145 8
142 150 6
142 154 4
142 158 4
142 159 9
142 160 9
142 161 1
142 168 3
142 169 3
142 170 3
142 171 4
142 174 5
142 176 8
142 177 1
142 179 7
142 181 6
142 182 6
142 183 8
142 185 4
142 187 9
142 188 4
142 190 9
142 195 2
142 196 4
142 198 2
142 199 1
142 200 2
142 203 5
142 204 8
142 205 9
142 207 1
142 208 8
142 210 6
142 211 1
142 212 2
142 215 9
142 216 1
142 217 2
142 218 10
142 219 7
142 220 6
142 223 9
142 224 5
142 225 1
142 226 4
142 227 8
142 230 2
142 231 6
142 235 7
142 236 8
142 237 8
142 239 1
142 243 4
142 244 7
142 247 7
142 249 1
142 250 2
142 252 8
142 253 6
142 254 8
142 256 9
142 257 10
142 258 9
142 260 7
142 262 7
142 263 6
142 267 8
142 269 1
142 272 9
142 276 9
142 277 8
142 279 7
142 280 10
142 284 1
142 285 1
142 286 2
142 288 4
142 291 2
142 297 4
142 300 6
143 144 1
143 145 4
143 146 4
143 147 2
143 149 10
143 151 2
143 153 2
143 154 4
143 157 3
143 161 9
143 162 5
143 167 6
143 169 7
143 171 3
143 174 2
143 175 3
143 176 6
143 179 6
143 183 6
143 185 5
143 186 3
143 187 6
143 189 2
143 190 10
143 191 7
143 193 6
143 195 6
143 196 4
143 199 8
143 200 3
143 202 2
143 203 1
143 204 6
143 207 4
143 209 4
143 211 2
143 213 8
143 216 7
143 217 2
143 218 2
143 223 10
143 224 9
143 225 9
143 227 7
143 234 5
143 236 6
143 238 3
143 240 1
143 244 5
143 246 3
143 248 4
143 250 6
143 251 3
143 253 8
143 254 9
143 255 8
143 257 8
143 263 3
143 264 7
143 266 5
143 268 3
143 269 5
143 271 7
143 273 7
143 275 7
143 277 2
143 278 10
143 279 9
143 287 4
143 288 2
143 289 9
143 291 5
143 293 10
143 295 4
143 297 2
144 145 10
144 147 2
144 148 7
144 149 4
144 154 3
144 155 3
144 160 10
144 161 4
144 164 6
144 167 1
144 171 1
144 172 7
144 176 6
144 177 8
144 178 8
144 179 3
144 181 6
144 184 7
144 185 10
144 192 4
144 193 1
144 195 3
144 196 2
144 197 10
144 201 9
144 202 2
144 204 9
144 205 5
144 209 5
144 216 8
144 218 4
144 227 7
144 230 2
144 231 5
144 235 3
144 237 10
144 239 6
144 240 2
144 242 6
144 245 2
144 246 1
144 248 6
144 250 10
144 251 7
144 252 1
144 253 9
144 255 3
144 258 9
144 260 4
144 261 10
144 262 5
144 263 1
144 264 7
144 265 7
144 266 10
144 267 6
144 268 10
144 269 5
144 272 9
144 273 8
144 274 2
144 276 10
144 278 2
144 279 10
144 280 3
144 281 10
144 282 7
144 283 9
144 284 10
144 286 3
144 287 5
144 289 3
144 290 10
144 291 1
144 294 10
144 295 4
144 298 7
144 299 1
145 147 9
145 148 3
145 149 1
145 150 9
145 152 3
145 153 2
145 156 9
145 159 2
145 161 4
145 163 1
145 164 6
145 167 1
145 170 9
145 171 5
145 176 4
145 179 2
145 180 5
145 182 8
145 184 9
145 185 7
145 187 7
145 189 4
145 190 4
145 191 3
145 193 6
145 198 7
145 202 6
145 203 3
145 204 1
145 208 2
145 209 2
145 210 7
145 211 6
145 213 4
145 214 8
145 215 4
145 217 2
145 218 5
145 219 4
145 222 1
145 226 3
145 229 5
145 232 5
145 233 7
145 237 6
145 238 6
145 239 7
145 242 10
145 243 5
145 244 4
145 245 10
145 247 4
145 253 10
145 254 9
145 256 5
145 259 5
145 261 9
145 264 4
145 265 3
145 270 1
145 271 7
145 272 10
145 274 10
145 275 6
145 277 6
145 281 3
145 282 8
145 283 1
145 285 1
145 288 2
145 289 2
145 292 2
145 294 3
145 295 10
145 300 5
146 147 3
146 148 3
146 150 1
146 152 1
146 153 7
146 154 3
146 156 5
146 159 3
146 162 5
146 165 5
146 166 8
146 167 2
146 170 3
146 171 1
146 173 3
146 176 6
146 178 7
146 179 9
146 180 7
146 183 7
146 185 5
146 188 7
146 190 5
146 191 2
146 194 6
146 196 4
146 199 3
146 200 1
146 201 9
146 202 3
146 203 4
146 206 1
146 209 5
146 211 8
146 213 1
146 217 2
146 219 7
146 220 5
146 221 10
146 222 3
146 224 1
146 226 5
146 227 6
146 229 10
146 230 2
146 231 5
146 233 4
146 238 2
146 239 2
146 241 2
146 244 3
146 245 9
146 247 10
146 248 9
146 250 2
146 251 5
146 252 7
146 253 2
146 255 4
146 260 4
146 264 3
146 265 1
146 269 3
146 271 3
146 273 3
146 275 2
146 276 10
146 277 8
146 279 1
146 280 4
146 281 5
146 282 3
146 284 9
146 287 10
146 288 6
146 290 8
146 294 1
147 153 5
147 154 10
147 156 7
147 157 2
147 158 1
147 160 9
147 161 2
147 162 4
147 164 9
147 167 1
147 169 1
147 175 6
147 177 4
147 179 4
147 183 9
147 184 7
147 185 7
147 186 6
147 187 7
147 188 2
147 189 5
147 190 8
147 191 7
147 192 2
147 193 3
147 204 1
147 207 3
147 209 8
147 210 2
147 212 6
147 213 3
147 219 7
147 222 5
147 224 9
147 226 4
147 228 5
147 230 3
147 231 10
147 232 6
147 234 4
147 235 4
147 237 2
147 240 4
147 241 10
147 242 6
147 246 9
147 247 3
147 248 10
147 249 9
147 250 6
147 252 7
147 253 7
147 254 3
147 258 8
147 260 8
147 262 4
147 264 1
147 266 7
147 267 10
147 268 9
147 269 7
147 270 10
147 273 1
147 274 7
147 278 1
147 280 3
147 281 7
147 282 10
147 284 4
147 290 2
147 291 6
147 296 8
147 298 2
148 149 2
148 151 5
148 153 4
148 155 1
148 158 4
148 159 5
148 161 8
148 163 6
148 164 5
148 169 9
148 172 6
148 173 6
148 175 10
148 177 2
148 178 1
148 179 2
148 182 6
148 186 1
148 188 5
148 191 6
148 194 6
148 195 8
148 196 10
148 197 9
148 200 2
148 201 9
148 202 8
148 203 8
148 205 7
148 212 5
148 213 6
148 214 7
148 215 6
148 219 3
148 220 1
148 222 6
148 223 3
148 224 5
148 226 8
148 228 10
148 229 9
148 232 6
148 236 10
148 239 9
148 240 4
148 242 5
148 243 5
148 249 8
148 251 1
148 254 6
148 257 8
148 258 4
148 259 10
148 262 4
148 263 2
148 265 10
148 271 2
148 272 5
148 273 8
148 274 2
148 276 10
148 278 1
148 279 3
148 280 9
148 281 4
148 282 4
148 284 5
148 285 10
148 286 10
148 289 8
148 295 3
148 296 9
148 297 1
148 298 1
148 299 4
149 150 6
149 151 3
149 153 2
149 156 8
149 159 5
149 160 7
149 161 8
149 162 7
149 164 8
149 171 10
149 172 9
149 173 2
149 177 6
149 178 10
149 180 10
149 181 8
149 185 10
149 186 6
149 187 8
149 191 6
149 194 6
149 196 9
149 199 10
149 200 5
149 202 2
149 203 7
149 205 10
149 207 8
149 208 10
149 209 10
149 210 8
149 213 4
149 214 9
149 217 3
149 218 4
149 222 7
149 223 3
149 224 2
149 227 10
149 228 2
149 229 10
149 231 8
149 234 2
149 235 9
149 236 7
149 238 5
149 242 10
149 244 6
149 245 2
149 247 5
149 249 9
149 250 5
149 256 6
149 257 10
149 260 2
149 262 8
149 263 6
149 264 10
149 271 5
149 272 1
149 275 4
149 278 3
149 280 4
149 281 2
149 282 6
149 284 8
149 286 6
149 288 10
149 291 6
149 295 2
149 296 1
149 297 3
149 298 4
149 299 3
149 300 3
150 151 5
150 153 3
150 157 6
150 158 1
150 160 5
150 164 3
150 168 5
150 169 2
150 170 10
150 171 10
150 172 5
150 174 5
150 175 9
150 178 5
150 179 8
150 180 6
150 182 1
150 183 6
150 184 2
150 186 8
150 187 5
150 188 6
150 189 3
150 192 9
150 193 1
150 194 2
150 201 7
150 207 8
150 210 3
150 212 9
150 214 8
150 217 7
150 218 10
150 221 8
150 223 1
150 224 10
150 225 2
150 228 7
150 229 10
150 230 7
150 234 2
150 236 9
150 239 4
150 241 5
150 244 3
150 246 3
150 248 5
150 249 6
150 250 1
150 252 7
150 253 4
150 263 4
150 264 9
150 265 6
150 266 5
150 267 10
150 271 10
150 272 6
150 274 6
150 276 4
150 277 9
150 280 7
150 283 5
150 288 6
150 292 9
150 293 9
150 294 4
150 295 9
151 153 9
151 154 6
151 156 6
151 158 1
151 160 1
151 161 7
151 163 7
151 164 3
151 171 4
151 172 10
151 175 8
151 176 6
151 178 5
151 179 5
151 180 10
151 181 2
151 182 5
151 185 9
151 188 4
151 189 8
151 194 4
151 195 1
151 196 6
151 197 3
151 202 6
151 203 3
151 204 6
151 207 9
151 209 6
151 212 2
151 213 6
151 214 2
151 215 8
151 217 4
151 218 8
151 219 8
151 220 5
151 224 3
151 225 6
151 226 8
151 227 10
151 228 4
151 229 10
151 230 6
151 233 9
151 234 8
151 236 4
151 237 2
151 238 7
151 239 9
151 242 4
151 244 2
151 245 1
151 247 10
151 252 10
151 255 7
151 256 10
151 257 1
151 258 7
151 260 2
151 261 10
151 263 2
151 264 3
151 267 9
151 269 5
151 270 3
151 271 8
151 272 8
151 276 4
151 278 4
151 280 8
151 281 2
151 283 9
151 284 8
151 288 9
151 289 1
151 293 3
151 294 10
151 295 3
151 299 6
151 300 3
152 154 8
152 155 1
152 157 4
152 158 8
152 163 1
152 164 2
152 168 9
152 171 2
152 172 1
152 173 7
152 174 5
152 175 10
152 177 9
152 178 9
152 180 9
152 181 10
152 182 3
152 183 10
152 185 7
152 187 5
152 189 6
152 190 5
152 195 10
152 196 8
152 202 10
152 203 8
152 204 10
152 208 5
152 209 5
152 211 7
152 215 3
152 218 6
152 219 6
152 222 2
152 224 6
152 231 8
152 232 7
152 233 6
152 234 8
152 235 8
152 236 6
152 238 4
152 242 4
152 243 5
152 245 7
152 248 3
152 249 4
152 250 3
152 251 6
152 252 6
152 253 10
152 255 9
152 256 1
152 257 3
152 258 10
152 259 6
152 260 4
152 261 7
152 263 1
152 268 4
152 269 2
152 271 3
152 272 3
152 278 4
152 279 5
152 280 1
152 282 2
152 283 2
152 284 4
152 288 7
152 289 9
152 290 1
152 293 3
152 295 6
152 297 7
152 300 4
153 155 1
153 158 8
153 160 10
153 164 3
153 165 10
153 167 10
153 171 2
153 172 7
153 179 4
153 180 9
153 183 10
153 185 4
153 187 7
153 188 5
153 191 1
153 196 2
153 198 8
153 200 10
153 201 1
153 202 7
153 203 7
153 207 8
153 208 8
153 210 7
153 211 8
153 215 7
153 220 9
153 223 10
153 225 4
153 227 7
153 228 6
153 229 2
153 230 4
153 231 10
153 233 3
153 235 2
153 236 9
153 237 8
153 240 5
153 241 6
153 243 4
153 245 7
153 247 8
153 249 9
153 250 8
153 251 7
153 260 8
153 261 4
153 267 6
153 270 1
153 271 8
153 273 3
153 276 8
153 279 10
153 283 3
153 284 6
153 285 8
153 286 7
153 288 3
153 289 8
153 292 3
153 293 9
153 294 9
153 295 2
153 298 10
154 155 5
154 156 6
154 157 10
154 162 5
154 164 4
154 165 2
154 167 8
154 168 1
154 170 2
154 171 3
154 172 4
154 174 10
154 178 7
154 179 3
154 180 6
154 181 10
154 184 10
154 185 4
154 191 9
154 193 8
154 198 9
154 199 6
154 201 2
154 203 1
154 205 7
154 206 7
154 208 5
154 210 3
154 212 8
154 213 8
154 216 7
154 219 5
154 220 6
154 224 4
154 225 10
154 226 9
154 229 8
154 230 7
154 231 7
154 232 10
154 236 7
154 241 10
154 242 5
154 243 7
154 244 1
154 246 3
154 248 10
154 251 3
154 253 1
154 256 4
154 257 5
154 258 5
154 259 5
154 261 9
154 262 5
154 263 3
154 264 6
154 268 3
154 269 7
154 270 9
154 271 9
154 274 4
154 278 4
154 279 2
154 280 7
154 281 3
154 283 10
154 284 7
154 285 4
154 286 7
154 288 8
154 289 2
154 291 9
154 294 2
154 295 1
154 299 6
154 300 5
155 158 4
155 159 3
155 161 8
155 163 2
155 164 4
155 167 2
155 170 2
155 171 8
155 177 9
155 178 10
155 181 9
155 182 2
155 192 8
155 193 6
155 194 1
155 195 7
155 196 6
155 197 6
155 198 5
155 200 6
155 205 9
155 206 3
155 208 7
155 209 4
155 211 5
155 215 7
155 217 7
155 219 9
155 220 7
155 222 1
155 226 1
155 231 8
155 235 1
155 236 9
155 237 9
155 239 9
155 240 8
155 241 10
155 242 4
155 243 10
155 247 7
155 248 9
155 249 9
155 254 2
155 257 10
155 260 7
155 261 3
155 262 6
155 263 4
155 268 6
155 270 10
155 272 9
155 273 10
155 274 7
155 276 8
155 278 2
155 280 9
155 282 1
155 283 8
155 284 6
155 286 8
155 287 6
155 290 10
155 291 1
155 292 5
155 294 2
155 295 4
155 296 10
155 297 9
155 299 9
156 158 8
156 160 2
156 162 3
156 163 1
156 164 6
156 165 1
156 167 8
156 168 6
156 169 3
156 170 6
156 171 6
156 172 10
156 175 3
156 179 10
156 181 5
156 183 7
156 184 2
156 187 9
156 190 1
156 191 2
156 192 1
156 198 2
156 201 2
156 202 8
156 205 3
156 206 4
156 208 3
156 211 1
156 212 4
156 216 2
156 218 4
156 219 2
156 222 10
156 224 6
156 225 8
156 226 7
156 227 3
156 229 3
156 230 9
156 232 3
156 233 2
156 236 7
156 237 1
156 238 2
156 239 5
156 240 1
156 241 3
156 243 10
156 244 10
156 247 3
156 248 2
156 249 8
156 250 2
156 251 4
156 253 3
156 254 9
156 255 10
156 258 5
156 259 3
156 260 1
156 261 2
156 267 3
156 268 3
156 269 5
156 272 3
156 278 3
156 279 6
156 280 3
156 282 7
156 286 10
156 291 6
156 293 6
156 295 7
156 300 4
157 158 2
157 160 9
157 161 6
157 163 5
157 167 1
157 171 5
157 173 9
157 175 8
157 176 4
157 183 9
157 184 6
157 187 9
157 189 9
157 190 1
157 192 6
157 193 8
157 194 1
157 198 2
157 200 1
157 202 6
157 206 7
157 207 2
157 208 3
157 209 7
157 212 10
157 213 6
157 214 7
157 215 2
157 216 2
157 217 3
157 218 2
157 219 4
157 221 7
157 222 5
157 223 7
157 225 7
157 226 5
157 227 3
157 229 6
157 231 9
157 234 2
157 239 10
157 241 3
157 243 8
157 245 5
157 247 1
157 249 5
157 250 8
157 251 8
157 252 4
157 253 5
157 255 8
157 258 6
157 261 7
157 264 5
157 265 10
157 268 5
157 270 6
157 271 2
157 276 2
157 278 10
157 279 9
157 282 1
157 283 8
157 285 1
157 286 5
157 288 9
157 289 1
157 291 3
157 293 2
157 294 9
157 295 2
157 296 7
157 299 1
158 159 5
158 163 2
158 166 9
158 167 9
158 169 2
158 171 7
158 172 6
158 174 2
158 179 1
158 183 9
158 184 1
158 186 4
158 187 2
158 190 2
158 191 6
158 194 1
158 196 7
158 197 9
158 198 6
158 199 8
158 200 7
158 203 2
158 205 3
158 206 10
158 207 9
158 208 8
158 210 5
158 212 5
158 213 10
158 214 6
158 215 2
158 216 7
158 217 8
158 218 7
158 219 2
158 221 7
158 222 6
158 223 9
158 225 10
158 226 4
158 227 10
158 229 6
158 232 8
158 234 3
158 235 8
158 236 3
158 240 10
158 241 5
158 242 1
158 244 9
158 245 6
158 246 8
158 247 7
158 250 5
158 251 5
158 252 7
158 256 2
158 258 7
158 261 4
158 263 7
158 266 2
158 268 3
158 269 9
158 270 9
158 272 8
158 273 9
158 274 2
158 277 10
158 278 5
158 281 3
158 282 1
158 283 10
158 286 6
158 287 4
158 288 4
158 289 7
158 291 2
158 296 5
158 298 5
158 299 5
159 160 2
159 162 4
159 164 7
159 166 7
159 167 5
159 168 4
159 169 9
159 172 2
159 175 9
159 177 2
159 185 7
159 187 2
159 188 1
159 189 10
159 191 8
159 193 3
159 194 7
159 196 1
159 197 1
159 198 3
159 200 8
159 201 7
159 207 4
159 208 6
159 209 5
159 210 4
159 211 6
159 212 4
159 213 5
159 214 5
159 215 3
159 217 4
159 219 7
159 220 5
159 221 7
159 222 2
159 223 10
159 228 8
159 229 9
159 230 4
159 231 3
159 232 8
159 233 7
159 234 6
159 237 5
159 238 5
159 240 8
159 241 6
159 243 10
159 244 9
159 245 8
159 246 4
159 248 8
159 249 6
159 251 7
159 252 2
159 253 2
159 255 7
159 256 9
159 258 2
159 259 6
159 260 3
159 262 1
159 263 10
159 265 1
159 266 7
159 267 9
159 272 3
159 275 2
159 279 3
159 281 5
159 283 6
159 284 3
159 285 4
159 287 1
159 288 8
159 289 1
159 291 5
159 292 2
159 293 6
159 297 5
159 298 7
160 162 1
160 164 7
160 165 4
160 166 7
160 167 9
160 168 8
160 169 9
160 170 4
160 173 8
160 176 2
160 177 8
160 182 8
160 183 7
160 184 1
160 189 4
160 190 3
160 193 2
160 195 3
160 196 7
160 199 7
160 201 9
160 202 8
160 206 7
160 207 10
160 208 3
160 209 1
160 212 6
160 214 1
160 216 1
160 220 4
160 225 8
160 226 10
160 227 4
160 228 6
160 229 7
160 230 5
160 231 5
160 232 5
160 234 9
160 237 5
160 238 3
160 243 5
160 244 8
160 245 7
160 247 10
160 249 6
160 250 4
160 251 4
160 252 4
160 254 2
160 259 5
160 260 5
160 261 10
160 262 1
160 264 9
160 268 2
160 269 10
160 275 4
160 277 5
160 285 1
160 287 1
160 290 4
160 292 10
160 293 8
160 295 10
160 300 7
161 164 5
161 166 10
161 171 4
161 172 1
161 175 8
161 177 7
161 178 1
161 180 4
161 185 2
161 187 5
161 190 7
161 191 1
161 194 3
161 197 9
161 198 5
161 200 9
161 202 8
161 203 2
161 204 10
161 205 5
161 206 7
161 207 3
161 208 9
161 210 5
161 211 2
161 213 6
161 215 1
161 216 7
161 217 4
161 218 3
161 219 8
161 222 4
161 223 10
161 225 6
161 227 6
161 229 9
161 230 7
161 231 8
161 232 5
161 234 5
161 235 7
161 236 8
161 237 4
161 238 1
161 239 4
161 240 2
161 241 9
161 242 6
161 243 8
161 251 2
161 252 7
161 254 4
161 256 1
161 257 3
161 258 3
161 259 5
161 261 1
161 262 3
161 265 1
161 266 5
161 269 3
161 273 5
161 278 7
161 279 7
161 280 9
161 285 2
161 288 5
161 289 6
161 291 9
161 293 5
161 294 10
161 296 4
161 300 4
162 165 10
162 167 8
162 168 8
162 171 6
162 172 3
162 176 10
162 177 9
162 178 8
162 179 6
162 182 3
162 183 9
162 188 5
162 191 3
162 193 9
162 196 3
162 197 9
162 198 9
162 199 1
162 202 6
162 203 10
162 205 3
162 206 9
162 207 8
162 208 7
162 209 9
162 213 7
162 216 10
162 217 4
162 218 7
162 222 2
162 227 5
162 228 1
162 230 2
162 233 4
162 237 10
162 240 2
162 242 1
162 243 6
162 244 3
162 247 8
162 249 9
162 250 6
162 254 7
162 258 9
162 259 10
162 260 8
162 261 4
162 263 3
162 265 2
162 267 7
162 279 5
162 280 9
162 281 7
162 284 7
162 286 5
162 287 4
162 288 1
162 289 6
162 290 6
162 293 6
162 297 9
162 300 3
163 170 5
163 174 6
163 175 7
163 177 6
163 178 4
163 180 1
163 181 6
163 185 3
163 186 7
163 191 5
163 192 5
163 196 6
163 201 8
163 207 1
163 208 5
163 210 4
163 211 8
163 216 4
163 218 4
163 221 1
163 222 1
163 224 1
163 225 3
163 226 10
163 227 9
163 229 9
163 233 8
163 234 10
163 235 6
163 236 9
163 239 3
163 241 9
163 245 9
163 246 10
163 251 9
163 253 4
163 258 6
163 260 4
163 261 2
163 262 1
163 263 1
163 265 8
163 266 3
163 269 6
163 271 8
163 273 8
163 274 4
163 275 2
163 277 9
163 278 10
163 279 7
163 280 3
163 281 8
163 284 4
163 289 7
163 294 6
163 295 1
164 167 2
164 169 2
164 171 10
164 173 6
164 174 6
164 176 9
164 177 3
164 178 1
164 179 1
164 181 4
164 184 9
164 185 8
164 187 8
164 190 10
164 191 10
164 193 7
164 194 1
164 195 9
164 199 2
164 200 2
164 203 8
164 204 5
164 206 6
164 208 8
164 209 8
164 210 10
164 212 9
164 213 8
164 214 4
164 217 4
164 219 6
164 220 7
164 222 5
164 223 10
164 225 3
164 229 5
164 238 4
164 239 4
164 241 8
164 243 4
164 245 3
164 246 3
164 248 5
164 249 1
164 250 10
164 252 3
164 253 10
164 254 6
164 255 10
164 262 10
164 268 2
164 269 7
164 270 6
164 273 10
164 274 9
164 275 4
164 276 7
164 278 4
164 280 3
164 282 7
164 283 3
164 285 1
164 286 10
164 287 6
164 290 4
164 291 1
164 292 7
164 293 10
164 294 2
164 296 7
164 297 8
164 300 9
165 168 3
165 169 6
165 173 5
165 178 10
165 179 8
165 180 8
165 182 2
165 183 1
165 184 7
165 185 1
165 188 8
165 191 1
165 194 3
165 195 6
165 196 5
165 199 5
165 200 1
165 202 9
165 205 1
165 207 5
165 210 5
165 211 7
165 212 8
165 213 10
165 214 10
165 215 7
165 217 5
165 218 9
165 224 8
165 229 1
165 230 5
165 234 3
165 237 7
165 238 2
165 240 7
165 242 1
165 243 3
165 244 2
165 248 10
165 249 10
165 253 3
165 254 1
165 258 5
165 259 4
165 260 1
165 261 1
165 262 2
165 264 5
165 265 5
165 266 4
165 267 3
165 269 7
165 270 10
165 274 6
165 275 4
165 276 5
165 278 5
165 279 7
165 280 5
165 281 2
165 285 2
165 286 10
165 287 7
165 288 1
165 289 3
165 290 9
165 295 3
165 297 3
166 168 7
166 169 7
166 170 4
166 177 7
166 178 5
166 180 3
166 181 8
166 182 6
166 185 9
166 186 8
166 188 10
166 189 8
166 194 4
166 197 1
166 198 1
166 199 5
166 200 1
166 201 2
166 206 4
166 209 8
166 213 8
166 214 7
166 215 6
166 216 8
166 220 2
166 221 9
166 222 7
166 223 1
166 226 7
166 227 10
166 232 10
166 233 4
166 235 2
166 236 1
166 237 9
166 238 2
166 239 3
166 242 4
166 245 6
166 249 2
166 251 2
166 252 10
166 253 7
166 254 1
166 257 8
166 258 8
166 261 4
166 262 1
166 263 6
166 264 5
166 266 10
166 272 7
166 273 7
166 274 5
166 275 9
166 278 1
166 281 2
166 282 2
166 283 5
166 287 8
166 288 7
166 289 4
166 290 3
166 291 6
166 293 4
166 296 5
166 297 5
166 298 4
166 299 6
167 168 1
167 171 9
167 172 1
167 175 10
167 176 10
167 177 5
167 178 10
167 184 6
167 185 2
167 186 7
167 187 6
167 188 3
167 191 10
167 195 1
167 196 7
167 198 1
167 200 8
167 202 7
167 205 10
167 206 1
167 208 2
167 214 3
167 216 10
167 218 8
167 224 2
167 225 5
167 226 1
167 229 1
167 230 9
167 231 8
167 232 6
167 233 6
167 236 8
167 240 8
167 241 7
167 253 9
167 255 4
167 256 1
167 257 9
167 259 3
167 265 5
167 267 5
167 269 1
167 271 6
167 274 4
167 277 7
167 278 7
167 279 3
167 281 8
167 283 3
167 286 2
167 288 6
167 293 1
167 296 2
167 297 10
167 299 9
168 169 1
168 170 10
168 173 6
168 174 3
168 178 2
168 180 7
168 183 1
168 184 8
168 185 8
168 186 6
168 187 6
168 189 7
168 190 1
168 194 4
168 196 6
168 198 1
168 199 4
168 200 3
168 201 10
168 202 1
168 203 5
168 204 7
168 205 2
168 206 7
168 207 10
168 210 7
168 211 4
168 212 1
168 213 3
168 214 1
168 216 6
168 218 5
168 220 5
168 221 9
168 222 10
168 224 9
168 225 3
168 228 2
168 231 9
168 232 6
168 233 3
168 234 4
168 235 9
168 238 3
168 239 2
168 240 9
168 241 4
168 242 5
168 243 4
168 244 5
168 246 1
168 248 1
168 251 10
168 253 4
168 254 4
168 255 5
168 256 7
168 258 5
168 259 8
168 260 1
168 264 5
168 265 10
168 269 4
168 270 2
168 272 3
168 273 3
168 277 4
168 279 9
168 281 9
168 282 1
168 286 6
168 287 1
168 290 2
168 291 5
168 293 1
168 294 3
168 296 2
168 297 5
168 299 8
169 171 3
169 175 3
169 177 5
169 180 10
169 182 8
169 183 5
169 184 7
169 185 9
169 189 9
169 190 3
169 191 9
169 192 5
169 194 2
169 197 8
169 201 7
169 203 4
169 204 9
169 207 7
169 208 1
169 209 7
169 214 6
169 216 2
169 217 4
169 218 3
169 220 4
169 223 3
169 224 8
169 225 10
169 226 7
169 229 8
169 231 3
169 232 10
169 235 10
169 236 10
169 238 3
169 240 3
169 245 3
169 246 6
169 248 6
169 253 1
169 259 5
169 261 8
169 262 6
169 263 5
169 271 7
169 274 5
169 276 4
169 277 9
169 279 10
169 283 4
169 285 3
169 286 7
169 287 3
169 292 5
169 293 6
169 294 1
169 296 4
169 297 6
169 298 3
169 300 3
170 174 9
170 176 5
170 179 8
170 181 5
170 185 9
170 187 2
170 190 1
170 191 1
170 193 8
170 197 9
170 198 2
170 199 6
170 200 2
170 201 1
170 202 8
170 204 10
170 205 6
170 206 5
170 208 1
170 210 1
170 211 2
170 217 5
170 219 5
170 220 4
170 221 7
170 222 1
170 223 1
170 224 1
170 225 10
170 227 5
170 228 10
170 229 8
170 231 2
170 232 2
170 239 3
170 240 10
170 242 10
170 245 9
170 251 9
170 252 5
170 254 5
170 255 8
170 258 4
170 260 5
170 261 4
170 262 2
170 268 3
170 269 1
170 270 1
170 271 8
170 273 10
170 274 9
170 275 7
170 276 8
170 277 6
170 278 6
170 279 3
170 280 1
170 281 7
170 285 1
170 286 1
170 288 10
170 289 8
170 291 7
170 295 5
170 296 5
170 297 8
170 298 5
171 173 4
171 174 7
171 177 1
171 178 9
171 181 7
171 184 6
171 185 2
171 190 7
171 192 3
171 194 3
171 196 9
171 197 1
171 200 3
171 201 1
171 203 1
171 205 4
171 207 9
171 209 9
171 211 5
171 213 1
171 216 7
171 217 3
171 218 10
171 220 9
171 222 10
171 223 8
171 226 4
171 228 3
171 230 4
171 231 4
171 234 6
171 235 5
171 236 3
171 237 3
171 238 8
171 239 7
171 240 9
171 242 9
171 246 9
171 247 10
171 249 5
171 250 9
171 253 10
171 255 2
171 258 1
171 259 10
171 260 1
171 264 5
171 265 5
171 266 4
171 268 9
171 269 2
171 273 8
171 276 5
171 278 4
171 279 5
171 284 8
171 287 6
171 288 1
171 289 10
171 290 2
171 292 4
171 294 3
171 296 6
171 297 1
171 299 9
171 300 1
172 175 3
172 177 10
172 179 8
172 180 5
172 182 8
172 185 3
172 188 10
172 190 7
172 191 5
172 192 3
172 193 9
172 195 7
172 196 6
172 201 10
172 202 5
172 203 9
172 204 6
172 206 5
172 207 1
172 209 4
172 212 7
172 214 10
172 216 3
172 217 7
172 218 9
172 220 10
172 221 9
172 223 6
172 225 5
172 228 1
172 229 9
172 231 9
172 236 8
172 237 6
172 239 10
172 240 7
172 241 5
172 247 2
172 248 1
172 249 3
172 250 9
172 251 1
172 252 4
172 253 4
172 254 3
172 258 2
172 259 3
172 260 3
172 265 3
172 266 10
172 269 6
172 271 2
172 272 2
172 274 4
172 275 1
172 276 1
172 277 6
172 278 7
172 279 4
172 282 2
172 283 6
172 284 7
172 285 7
172 291 2
172 295 4
172 297 7
172 298 1
172 299 7
172 300 6
173 174 6
173 176 9
173 179 6
173 180 8
173 187 1
173 188 1
173 189 6
173 190 6
173 191 6
173 194 5
173 196 6
173 198 10
173 201 9
173 202 5
173 204 9
173 206 7
173 207 1
173 209 10
173 210 5
173 211 3
173 213 9
173 215 9
173 216 3
173 221 7
173 222 9
173 226 4
173 228 8
173 229 7
173 232 3
173 233 6
173 237 5
173 240 8
173 241 10
173 243 5
173 244 8
173 245 10
173 246 5
173 247 7
173 250 1
173 254 6
173 256 2
173 257 6
173 258 6
173 262 9
173 267 6
173 270 5
173 271 8
173 277 9
173 278 3
173 279 9
173 281 3
173 282 9
173 283 8
173 285 4
173 286 6
173 287 3
173 288 9
173 289 3
173 291 7
173 293 4
173 294 7
173 296 2
173 297 2
173 298 10
173 299 9
174 176 2
174 177 4
174 178 6
174 179 9
174 180 10
174 181 1
174 182 4
174 183 8
174 184 10
174 185 2
174 186 6
174 188 3
174 189 7
174 190 5
174 192 9
174 194 5
174 196 6
174 197 1
174 198 5
174 200 3
174 202 7
174 203 4
174 206 4
174 209 6
174 210 8
174 211 3
174 213 9
174 216 1
174 217 7
174 221 1
174 222 7
174 224 10
174 226 4
174 230 10
174 232 6
174 234 1
174 236 4
174 237 3
174 238 10
174 239 9
174 241 10
174 243 8
174 246 10
174 251 6
174 252 1
174 253 4
174 254 8
174 257 5
174 262 6
174 263 2
174 264 8
174 265 5
174 267 10
174 269 6
174 273 6
174 275 1
174 279 3
174 280 2
174 281 3
174 282 6
174 283 5
174 286 9
174 290 7
174 291 8
174 296 6
174 299 1
174 300 10
175 176 9
175 177 10
175 180 8
175 182 3
175 185 7
175 186 5
175 187 5
175 189 5
175 190 6
175 193 1
175 194 3
175 195 4
175 198 1
175 200 7
175 202 7
175 204 2
175 207 8
175 209 2
175 213 5
175 214 4
175 217 3
175 220 9
175 222 4
175 223 3
175 224 4
175 228 10
175 232 10
175 233 9
175 234 8
175 235 10
175 236 3
175 237 1
175 238 6
175 245 7
175 246 8
175 247 9
175 250 8
175 252 8
175 254 1
175 259 9
175 260 6
175 261 10
175 266 3
175 267 6
175 268 8
175 269 10
175 270 7
175 275 6
175 276 7
175 280 2
175 281 9
175 282 1
175 284 6
175 286 1
175 288 4
175 291 8
175 293 7
175 294 3
175 297 8
175 299 5
175 300 9
176 178 7
176 179 4
176 180 7
176 181 7
176 183 7
176 187 4
176 188 10
176 191 9
176 194 4
176 196 5
176 197 1
176 199 8
176 200 3
176 202 3
176 206 9
176 207 5
176 210 2
176 212 5
176 213 9
176 216 1
176 217 2
176 218 1
176 221 1
176 222 4
176 223 2
176 226 3
176 227 7
176 228 3
176 229 1
176 231 8
176 232 10
176 233 1
176 238 5
176 239 3
176 240 7
176 242 10
176 243 7
176 244 9
176 246 5
176 247 4
176 250 7
176 252 1
176 253 8
176 255 1
176 260 4
176 263 1
176 264 9
176 266 4
176 268 9
176 270 3
176 274 9
176 275 10
176 276 8
176 277 8
176 278 3
176 279 9
176 281 1
176 283 8
176 284 7
176 287 8
176 288 6
176 289 3
176 290 6
176 292 1
176 293 7
176 295 5
176 297 6
176 298 7
176 299 4
177 179 2
177 182 2
177 186 2
177 187 4
177 188 4
177 193 2
177 194 7
177 195 2
177 196 9
177 200 9
177 202 10
177 205 2
177 206 3
177 207 2
177 211 4
177 213 3
177 214 2
177 215 4
177 216 7
177 221 5
177 222 8
177 223 6
177 227 2
177 230 8
177 232 9
177 235 7
177 237 5
177 238 5
177 244 8
177 245 4
177 246 4
177 247 6
177 248 4
177 249 3
177 253 6
177 254 9
177 256 4
177 257 3
177 258 10
177 259 4
177 262 2
177 263 7
177 264 5
177 266 2
177 268 2
177 269 7
177 270 3
177 271 7
177 274 9
177 276 6
177 277 7
177 278 8
177 279 1
177 280 2
177 281 8
177 284 1
177 285 7
177 287 2
177 292 3
177 296 4
177 297 9
178 179 9
178 180 9
178 181 9
178 185 2
178 187 6
178 188 8
178 189 10
178 191 5
178 192 8
178 194 4
178 198 8
178 199 9
178 202 8
178 204 4
178 205 8
178 206 4
178 207 3
178 208 9
178 209 1
178 212 7
178 215 2
178 216 6
178 220 9
178 221 3
178 222 8
178 223 1
178 226 8
178 227 4
178 229 4
178 231 9
178 232 2
178 234 2
178 237 7
178 238 10
178 241 10
178 242 4
178 245 8
178 246 1
178 247 2
178 250 4
178 254 10
178 258 4
178 259 6
178 260 1
178 261 1
178 264 4
178 265 6
178 266 4
178 268 8
178 269 7
178 270 3
178 271 9
178 273 4
178 275 1
178 279 7
178 280 5
178 285 8
178 287 3
178 289 5
178 292 1
178 293 6
178 296 7
178 298 9
178 299 3
179 180 1
179 181 7
179 183 5
179 190 10
179 191 4
179 192 4
179 193 4
179 196 6
179 197 9
179 199 9
179 203 4
179 204 8
179 206 9
179 209 5
179 211 1
179 216 9
179 217 2
179 218 6
179 220 8
179 222 3
179 223 7
179 224 7
179 225 1
179 226 4
179 228 8
179 229 6
179 231 10
179 232 3
179 235 9
179 236 6
179 237 10
179 238 2
179 239 4
179 241 6
179 242 10
179 246 6
179 251 10
179 252 4
179 253 5
179 254 3
179 255 10
179 256 3
179 257 8
179 259 1
179 260 10
179 262 5
179 263 4
179 264 2
179 267 6
179 268 1
179 269 5
179 270 9
179 271 8
179 274 5
179 275 8
179 276 6
179 278 5
179 279 4
179 282 8
179 284 4
179 285 9
179 288 7
179 292 8
179 296 3
179 297 10
180 181 8
180 183 2
180 188 1
180 189 4
180 190 5
180 195 6
180 197 1
180 200 7
180 203 3
180 204 8
180 205 5
180 207 1
180 209 3
180 210 3
180 216 10
180 217 9
180 221 8
180 223 5
180 225 9
180 227 1
180 228 4
180 229 6
180 230 4
180 232 1
180 233 3
180 234 2
180 236 6
180 238 9
180 240 2
180 241 10
180 244 7
180 246 4
180 247 10
180 249 2
180 251 3
180 252 5
180 256 3
180 257 3
180 260 7
180 261 2
180 263 4
180 265 10
180 266 9
180 268 10
180 269 6
180 271 7
180 272 9
180 274 8
180 275 4
180 276 10
180 277 9
180 282 5
180 283 9
180 287 1
180 288 10
180 289 4
180 290 10
180 293 3
180 294 4
180 295 2
180 297 5
180 298 9
180 299 6
181 183 7
181 184 4
181 186 5
181 187 7
181 188 5
181 189 3
181 194 3
181 195 4
181 196 5
181 197 8
181 199 1
181 201 7
181 208 4
181 209 7
181 210 2
181 211 5
181 214 2
181 217 4
181 218 5
181 220 2
181 222 6
181 226 9
181 232 1
181 233 6
181 235 8
181 237 4
181 240 8
181 244 2
181 245 3
181 249 10
181 250 10
181 251 8
181 252 2
181 255 9
181 256 2
181 257 4
181 259 10
181 260 6
181 262 2
181 263 5
181 266 7
181 267 1
181 268 8
181 269 2
181 277 8
181 280 6
181 282 10
181 284 10
181 290 7
181 292 7
181 293 3
181 294 10
181 295 7
182 183 10
182 186 6
182 187 10
182 188 2
182 189 2
182 190 4
182 192 8
182 194 9
182 198 8
182 203 5
182 204 6
182 206 4
182 207 6
182 211 3
182 212 3
182 213 2
182 214 8
182 216 6
182 217 2
182 221 1
182 226 8
182 228 7
182 232 5
182 241 7
182 242 8
182 243 1
182 244 5
182 248 9
182 250 9
182 254 5
182 255 8
182 256 6
182 259 3
182 260 4
182 261 6
182 262 5
182 263 4
182 265 9
182 266 4
182 267 4
182 268 10
182 269 9
182 271 5
182 279 3
182 282 3
182 283 3
182 284 3
182 285 3
182 287 1
182 290 5
182 291 2
182 292 10
182 296 2
182 298 2
182 299 1
182 300 4
183 186 8
183 187 3
183 189 5
183 192 1
183 199 10
183 203 4
183 205 4
183 207 8
183 209 9
183 211 4
183 212 5
183 213 2
183 214 8
183 215 2
183 216 8
183 218 3
183 220 10
183 224 7
183 225 9
183 228 2
183 229 5
183 230 1
183 232 5
183 234 7
183 235 8
183 243 10
183 244 6
183 245 2
183 248 3
183 249 3
183 251 5
183 253 5
183 256 4
183 257 9
183 258 5
183 259 6
183 261 7
183 263 8
183 264 9
183 265 7
183 270 7
183 271 6
183 274 3
183 275 2
183 278 1
183 285 9
183 286 10
183 290 1
183 293 8
183 297 8
184 187 8
184 188 1
184 189 1
184 191 8
184 193 5
184 194 3
184 198 1
184 201 4
184 202 1
184 203 9
184 205 1
184 206 5
184 210 10
184 211 4
184 215 4
184 219 5
184 220 6
184 224 8
184 225 7
184 226 2
184 227 7
184 228 9
184 229 9
184 230 4
184 231 1
184 232 6
184 233 9
184 238 4
184 241 3
184 242 4
184 244 6
184 246 8
184 248 5
184 252 9
184 254 4
184 255 6
184 256 7
184 258 6
184 261 5
184 264 8
184 270 8
184 272 5
184 276 3
184 278 3
184 283 10
184 285 1
184 286 7
184 288 9
184 289 4
184 291 10
184 292 6
184 296 2
184 298 6
185 186 7
185 191 7
185 195 10
185 196 1
185 198 10
185 199 8
185 201 3
185 202 7
185 205 1
185 207 8
185 210 9
185 211 6
185 213 8
185 215 2
185 216 4
185 217 7
185 219 3
185 222 3
185 224 2
185 225 10
185 227 4
185 231 4
185 233 6
185 234 4
185 235 1
185 239 7
185 241 6
185 242 6
185 247 5
185 250 9
185 253 10
185 255 1
185 257 3
185 259 8
185 260 2
185 263 6
185 264 8
185 266 6
185 268 9
185 269 5
185 270 9
185 274 2
185 276 6
185 278 1
185 279 2
185 281 7
185 282 3
185 285 2
185 287 2
185 288 10
185 289 1
185 292 6
185 295 7
185 298 6
186 188 5
186 189 5
186 190 2
186 195 5
186 197 8
186 198 7
186 199 4
186 202 4
186 204 1
186 206 8
186 211 1
186 212 4
186 213 3
186 216 10
186 217 4
186 218 7
186 219 4
186 222 8
186 225 5
186 226 10
186 228 7
186 232 6
186 233 10
186 235 5
186 238 2
186 239 10
186 240 8
186 241 1
186 245 7
186 246 8
186 249 1
186 250 3
186 256 3
186 257 9
186 259 2
186 260 3
186 263 3
186 265 6
186 272 1
186 273 3
186 276 1
186 278 10
186 280 10
186 282 6
186 283 5
186 287 6
186 289 9
186 292 2
186 293 3
186 295 6
186 298 7
186 299 4
187 188 4
187 189 5
187 192 10
187 194 5
187 195 3
187 198 8
187 201 3
187 203 9
187 205 5
187 206 2
187 209 3
187 210 5
187 211 3
187 213 2
187 214 2
187 216 10
187 219 6
187 220 9
187 221 4
187 223 3
187 226 5
187 227 2
187 228 6
187 230 6
187 231 6
187 232 9
187 233 10
187 234 8
187 235 7
187 237 1
187 242 6
187 244 10
187 246 8
187 248 2
187 251 9
187 253 10
187 254 10
187 255 10
187 256 5
187 257 6
187 261 6
187 263 1
187 264 2
187 265 7
187 268 9
187 269 7
187 270 10
187 273 8
187 274 6
187 276 2
187 277 3
187 280 6
187 281 2
187 282 7
187 284 6
187 285 3
187 286 1
187 287 3
187 288 4
187 290 8
187 291 6
187 294 3
187 295 9
187 296 8
187 298 1
187 299 5
187 300 2
188 189 7
188 191 6
188 195 8
188 197 1
188 198 5
188 200 7
188 201 10
188 202 9
188 204 7
188 205 3
188 207 2
188 209 10
188 210 3
188 214 10
188 215 1
188 217 8
188 219 4
188 220 4
188 227 8
188 231 1
188 233 8
188 234 1
188 235 2
188 236 6
188 237 9
188 241 6
188 244 6
188 248 8
188 249 8
188 251 6
188 254 4
188 255 8
188 258 10
188 260 1
188 262 10
188 264 7
188 265 9
188 266 10
188 267 7
188 270 4
188 271 3
188 272 5
188 275 6
188 276 2
188 277 3
188 278 9
188 281 5
188 283 1
188 285 4
188 288 3
188 292 4
188 295 7
188 296 9
188 298 4
188 299 7
188 300 9
189 192 4
189 196 6
189 199 1
189 202 9
189 203 1
189 207 2
189 213 6
189 214 7
189 217 8
189 218 3
189 220 9
189 221 1
189 222 10
189 226 1
189 228 7
189 232 4
189 234 3
189 235 10
189 237 6
189 239 1
189 243 9
189 244 1
189 245 6
189 246 4
189 247 9
189 248 8
189 250 6
189 253 1
189 255 1
189 259 9
189 263 4
189 267 2
189 268 3
189 270 9
189 275 5
189 276 8
189 279 4
189 280 10
189 281 10
189 282 2
189 284 2
189 285 4
189 287 6
189 288 7
189 289 10
189 290 8
189 291 5
189 298 7
190 191 2
190 192 3
190 193 1
190 195 4
190 197 3
190 198 7
190 199 4
190 200 7
190 203 9
190 206 3
190 210 6
190 212 9
190 213 3
190 217 9
190 220 5
190 221 9
190 222 1
190 223 3
190 224 5
190 227 3
190 228 8
190 229 2
190 238 3
190 239 8
190 240 4
190 242 3
190 243 1
190 247 9
190 250 5
190 252 3
190 253 2
190 255 1
190 258 1
190 259 3
190 260 8
190 263 9
190 264 5
190 265 6
190 266 10
190 269 7
190 271 5
190 272 5
190 273 9
190 275 9
190 278 8
190 282 5
190 283 6
190 284 7
190 286 10
190 289 1
190 290 3
190 296 4
190 297 10
190 298 1
190 299 10
191 198 9
191 204 1
191 206 5
191 207 5
191 208 3
191 209 8
191 210 6
191 211 6
191 212 1
191 213 8
191 214 3
191 217 7
191 218 5
191 222 7
191 223 4
191 226 2
191 231 2
191 233 8
191 240 7
191 241 7
191 244 9
191 245 5
191 246 6
191 247 3
191 248 3
191 252 3
191 254 4
191 255 6
191 256 5
191 258 5
191 259 9
191 260 1
191 261 1
191 262 6
191 270 10
191 271 2
191 272 6
191 274 2
191 278 6
191 279 1
191 280 5
191 285 10
191 286 1
191 291 6
191 293 6
191 294 6
191 296 10
191 298 6
191 300 6
192 193 9
192 195 9
192 196 3
192 199 4
192 201 2
192 203 8
192 204 8
192 205 8
192 206 4
192 207 10
192 211 2
192 212 4
192 214 5
192 219 5
192 221 8
192 222 1
192 227 2
192 228 4
192 229 5
192 231 4
192 233 10
192 234 7
192 235 6
192 237 5
192 238 6
192 239 10
192 241 10
192 246 10
192 250 9
192 251 8
192 254 9
192 256 7
192 258 10
192 260 7
192 261 10
192 262 10
192 265 4
192 266 2
192 268 2
192 270 8
192 272 2
192 275 5
192 277 7
192 278 9
192 281 3
192 284 8
192 285 4
192 288 4
192 291 2
192 293 1
192 295 3
192 297 10
192 298 1
192 300 2
193 194 6
193 195 5
193 197 7
193 199 1
193 200 4
193 202 6
193 203 5
193 205 5
193 209 1
193 210 3
193 215 4
193 216 10
193 217 1
193 218 5
193 222 8
193 223 9
193 224 8
193 227 6
193 231 4
193 232 7
193 238 2
193 240 9
193 241 3
193 243 4
193 244 4
193 245 1
193 246 7
193 249 1
193 250 8
193 251 9
193 256 1
193 258 10
193 259 7
193 261 1
193 264 7
193 267 5
193 268 9
193 269 6
193 273 8
193 274 4
193 276 10
193 278 5
193 283 6
193 284 4
193 285 1
193 289 5
193 292 5
193 295 10
193 296 9
193 297 6
193 298 5
193 300 7
194 195 6
194 198 3
194 200 6
194 201 4
194 204 3
194 206 6
194 208 3
194 210 8
194 212 3
194 215 5
194 216 9
194 218 10
194 219 10
194 221 8
194 222 2
194 223 1
194 225 2
194 226 8
194 227 5
194 230 1
194 231 7
194 232 10
194 233 6
194 235 4
194 237 6
194 239 1
194 249 4
194 250 10
194 251 7
194 253 1
194 254 2
194 256 1
194 257 1
194 258 3
194 259 3
194 260 9
194 262 3
194 269 3
194 270 4
194 271 2
194 275 4
194 276 3
194 277 10
194 281 10
194 284 8
194 286 10
194 288 5
194 291 8
194 292 9
194 294 1
194 295 10
194 296 10
194 298 8
194 299 7
194 300 9
195 196 7
195 197 10
195 199 8
195 200 5
195 202 4
195 204 5
195 205 3
195 206 3
195 208 2
195 209 3
195 210 7
195 212 6
195 213 10
195 214 2
195 219 7
195 220 7
195 222 4
195 223 1
195 225 7
195 226 10
195 229 2
195 231 5
195 232 3
195 233 9
195 235 6
195 237 6
195 243 5
195 245 1
195 246 8
195 249 9
195 251 6
195 252 3
195 253 4
195 254 8
195 261 6
195 263 8
195 268 2
195 271 4
195 273 7
195 274 1
195 275 8
195 278 5
195 279 5
195 280 2
195 282 4
195 283 1
195 285 1
195 292 2
195 296 4
195 297 3
195 298 8
195 299 6
195 300 3
196 198 3
196 202 7
196 204 7
196 205 5
196 207 1
196 211 3
196 214 7
196 216 3
196 218 9
196 220 7
196 221 2
196 225 7
196 227 4
196 228 9
196 233 10
196 234 6
196 235 10
196 237 7
196 239 4
196 243 2
196 244 1
196 245 9
196 246 9
196 254 3
196 256 10
196 257 7
196 261 2
196 263 8
196 265 8
196 266 4
196 267 10
196 277 10
196 279 9
196 280 10
196 281 6
196 284 8
196 285 7
196 286 10
196 287 7
196 289 9
196 293 8
196 294 10
196 295 2
196 298 3
196 299 8
196 300 6
197 198 10
197 199 6
197 202 7
197 203 6
197 204 8
197 205 4
197 207 6
197 208 1
197 209 9
197 210 10
197 213 10
197 215 9
197 221 6
197 222 8
197 224 8
197 225 3
197 226 4
197 231 8
197 232 9
197 238 7
197 239 7
197 243 2
197 244 5
197 246 1
197 250 10
197 252 8
197 253 5
197 255 7
197 256 6
197 259 10
197 260 8
197 261 8
197 262 4
197 263 5
197 268 6
197 269 10
197 270 1
197 271 8
197 273 7
197 274 7
197 275 8
197 276 3
197 277 1
197 280 1
197 281 8
197 285 8
197 292 6
197 294 8
198 199 10
198 200 4
198 202 7
198 203 8
198 207 1
198 208 7
198 209 4
198 213 7
198 215 1
198 216 8
198 218 6
198 221 4
198 223 10
198 224 10
198 225 5
198 227 8
198 228 5
198 230 8
198 231 5
198 232 6
198 233 8
198 234 5
198 235 6
198 237 8
198 238 1
198 240 7
198 241 9
198 242 9
198 245 8
198 246 6
198 247 2
198 248 9
198 252 1
198 253 6
198 254 1
198 256 4
198 257 1
198 260 1
198 261 10
198 265 7
198 268 3
198 269 3
198 273 2
198 274 3
198 275 10
198 276 10
198 277 1
198 278 1
198 279 7
198 281 10
198 284 4
198 288 4
198 289 1
198 290 7
198 291 6
198 292 7
198 294 8
198 298 7
198 299 6
199 200 6
199 203 7
199 205 5
199 213 7
199 214 10
199 215 6
199 217 2
199 218 10
199 220 3
199 224 7
199 227 5
199 231 3
199 233 10
199 234 6
199 236 3
199 237 5
199 240 9
199 242 6
199 243 8
199 245 4
199 246 9
199 247 1
199 248 3
199 250 9
199 251 6
199 252 4
199 259 8
199 261 1
199 262 5
199 264 5
199 265 2
199 266 6
199 268 8
199 269 8
199 275 5
199 276 3
199 277 3
199 278 7
199 282 7
199 285 7
199 287 1
199 288 9
199 289 5
199 291 7
199 292 6
199 293 10
199 295 2
199 296 4
199 298 7
199 300 9
200 201 1
200 202 4
200 203 6
200 206 4
200 207 6
200 208 6
200 209 2
200 216 2
200 217 3
200 221 10
200 227 10
200 230 2
200 232 9
200 237 8
200 238 9
200 239 7
200 240 2
200 242 4
200 243 3
200 244 2
200 245 3
200 246 4
200 247 3
200 250 7
200 251 3
200 253 1
200 259 3
200 260 1
200 261 9
200 265 5
200 268 4
200 270 8
200 271 1
200 272 4
200 274 1
200 275 7
200 277 2
200 278 6
200 279 9
200 280 2
200 281 1
200 282 4
200 284 1
200 286 10
200 287 3
200 288 3
200 289 7
200 290 4
200 293 3
200 297 1
200 298 1
201 202 7
201 203 5
201 204 1
201 205 8
201 208 4
201 209 3
201 210 3
201 213 3
201 217 6
201 226 7
201 227 7
201 229 3
201 231 8
201 234 4
201 235 8
201 237 3
201 238 8
201 239 2
201 241 3
201 246 1
201 252 1
201 256 2
201 257 9
201 259 6
201 260 4
201 261 5
201 262 6
201 263 8
201 265 9
201 268 1
201 272 9
201 279 6
201 280 10
201 282 6
201 283 5
201 284 9
201 287 5
201 288 4
201 289 9
201 292 1
201 293 7
201 294 5
201 295 9
201 297 2
201 298 5
201 300 10
202 203 5
202 208 3
202 212 7
202 214 3
202 219 9
202 224 7
202 226 8
202 227 5
202 229 9
202 233 9
202 235 8
202 241 1
202 243 6
202 247 9
202 248 1
202 249 1
202 253 7
202 258 6
202 259 9
202 260 9
202 261 7
202 266 6
202 268 7
202 271 2
202 274 5
202 276 9
202 278 8
202 280 5
202 282 6
202 285 10
202 286 10
202 287 10
202 290 1
202 291 9
202 293 9
202 296 2
202 299 1
203 204 4
203 206 1
203 207 3
203 212 9
203 214 8
203 220 5
203 222 2
203 224 10
203 226 7
203 229 2
203 232 6
203 235 9
203 237 10
203 238 8
203 243 6
203 246 10
203 247 5
203 249 3
203 250 10
203 251 3
203 253 2
203 258 7
203 262 8
203 264 8
203 265 10
203 266 9
203 269 2
203 270 9
203 275 7
203 277 3
203 279 1
203 281 7
203 282 7
203 283 8
203 286 4
203 287 5
203 288 3
203 290 7
203 292 9
203 293 8
203 298 7
204 206 7
204 210 6
204 211 4
204 213 3
204 215 5
204 216 10
204 218 1
204 219 2
204 220 4
204 221 1
204 223 5
204 225 4
204 227 1
204 228 6
204 231 10
204 232 4
204 233 7
204 239 5
204 240 1
204 241 10
204 242 3
204 244 2
204 245 1
204 248 3
204 252 7
204 254 4
204 257 10
204 258 9
204 261 1
204 262 1
204 264 2
204 265 9
204 267 5
204 269 3
204 270 8
204 272 1
204 273 8
204 274 5
204 276 4
204 279 7
204 282 6
204 283 9
204 286 2
204 287 6
204 288 5
204 290 1
204 291 8
204 292 8
204 297 7
204 299 2
205 206 4
205 207 4
205 210 4
205 213 1
205 214 3
205 219 9
205 221 5
205 223 4
205 228 10
205 230 9
205 231 10
205 234 1
205 237 10
205 238 5
205 240 10
205 241 3
205 242 3
205 244 7
205 246 4
205 247 6
205 248 3
205 249 6
205 252 3
205 254 7
205 255 9
205 256 10
205 258 1
205 259 1
205 262 3
205 267 4
205 269 3
205 270 9
205 271 5
205 272 9
205 276 8
205 277 8
205 280 4
205 281 4
205 283 8
205 284 1
205 286 2
205 287 1
205 288 1
205 294 2
205 295 9
205 297 7
205 298 2
206 209 9
206 210 1
206 212 3
206 213 8
206 217 4
206 219 2
206 222 1
206 225 5
206 226 10
206 227 1
206 228 6
206 229 7
206 232 1
206 233 7
206 234 2
206 236 2
206 241 7
206 243 2
206 244 2
206 246 6
206 252 9
206 254 6
206 255 6
206 256 8
206 257 5
206 259 5
206 265 9
206 266 5
206 267 6
206 268 9
206 269 2
206 270 9
206 271 8
206 272 10
206 273 7
206 275 10
206 277 6
206 278 5
206 279 5
206 281 1
206 283 3
206 284 9
206 287 10
206 288 8
206 289 1
206 290 6
206 291 10
206 292 5
206 294 7
206 295 10
206 296 1
206 298 4
207 209 1
207 210 4
207 211 2
207 217 9
207 219 8
207 227 3
207 228 2
207 231 10
207 234 6
207 236 8
207 237 2
207 239 6
207 240 9
207 241 7
207 243 6
207 245 5
207 246 7
207 247 5
207 248 8
207 249 7
207 251 5
207 253 3
207 254 5
207 255 6
207 259 9
207 260 2
207 263 2
207 264 2
207 265 10
207 266 7
207 267 1
207 269 9
207 272 7
207 274 6
207 275 4
207 276 5
207 280 7
207 281 8
207 282 6
207 284 4
207 287 6
207 288 3
207 289 5
207 294 1
207 295 4
207 296 10
207 298 9
207 299 6
208 213 5
208 214 10
208 216 5
208 218 6
208 220 8
208 222 7
208 223 9
208 229 2
208 230 7
208 235 7
208 236 6
208 238 7
208 239 8
208 240 4
208 243 9
208 245 1
208 247 1
208 249 1
208 250 7
208 252 10
208 253 6
208 254 1
208 256 2
208 257 6
208 259 8
208 260 10
208 261 9
208 262 10
208 263 4
208 264 1
208 265 10
208 268 6
208 269 6
208 270 4
208 271 9
208 272 7
208 273 6
208 276 4
208 277 5
208 278 7
208 281 8
208 282 9
208 284 3
208 286 9
208 287 10
208 291 5
208 292 9
208 293 9
208 294 7
208 298 3
208 299 7
208 300 1
209 210 10
209 212 10
209 213 7
209 215 3
209 216 7
209 217 4
209 218 3
209 220 2
209 221 2
209 222 1
209 225 2
209 226 5
209 229 4
209 231 4
209 234 4
209 236 7
209 239 9
209 240 1
209 241 2
209 243 8
209 244 1
209 245 6
209 247 10
209 250 6
209 253 2
209 256 9
209 258 1
209 259 10
209 265 4
209 266 3
209 267 2
209 274 2
209 277 7
209 279 4
209 281 4
209 284 9
209 285 8
209 286 5
209 289 1
209 290 10
209 291 8
209 292 1
209 293 5
209 294 3
209 298 6
209 300 2
210 211 10
210 212 9
210 215 8
210 217 6
210 218 7
210 219 8
210 220 4
210 224 8
210 226 8
210 227 3
210 228 7
210 230 3
210 231 6
210 232 3
210 237 6
210 243 1
210 244 2
210 245 1
210 246 7
210 248 6
210 249 2
210 250 2
210 254 2
210 256 3
210 261 7
210 262 7
210 264 6
210 265 2
210 266 1
210 268 10
210 272 2
210 276 9
210 278 7
210 280 4
210 282 3
210 283 6
210 286 9
210 287 3
210 291 8
210 292 3
210 293 9
210 295 9
210 300 5
211 212 4
211 213 7
211 215 9
211 216 8
211 218 9
211 219 7
211 220 5
211 221 8
211 224 9
211 226 6
211 228 2
211 234 7
211 235 10
211 236 1
211 237 3
211 240 1
211 243 1
211 244 6
211 247 4
211 249 5
211 252 10
211 253 7
211 254 5
211 256 3
211 259 6
211 260 6
211 265 8
211 266 1
211 268 9
211 269 7
211 271 8
211 272 9
211 273 6
211 274 10
211 275 7
211 277 5
211 278 10
211 279 3
211 281 5
211 282 4
211 283 2
211 285 10
211 287 9
211 288 2
211 289 2
211 290 3
211 293 8
211 294 2
211 295 5
211 296 6
211 298 5
211 299 6
211 300 9
212 213 10
212 214 5
212 216 2
212 221 9
212 223 1
212 227 10
212 228 10
212 237 9
212 238 3
212 241 1
212 242 2
212 245 10
212 247 7
212 248 2
212 251 9
212 252 1
212 253 8
212 254 9
212 255 3
212 256 6
212 260 9
212 264 7
212 266 2
212 272 5
212 274 10
212 276 4
212 278 6
212 279 2
212 280 2
212 286 1
212 288 7
212 291 9
212 292 5
212 293 7
212 295 4
212 296 7
212 297 4
213 217 8
213 218 4
213 220 8
213 221 7
213 222 5
213 224 7
213 225 4
213 229 10
213 232 6
213 233 8
213 235 8
213 236 10
213 237 1
213 238 8
213 239 10
213 240 10
213 242 1
213 244 3
213 246 9
213 247 6
213 249 7
213 250 3
213 251 3
213 254 3
213 256 1
213 258 4
213 259 1
213 260 9
213 261 10
213 263 2
213 264 9
213 265 6
213 268 10
213 270 8
213 271 2
213 272 7
213 276 7
213 277 5
213 278 10
213 279 1
213 280 1
213 281 1
213 282 7
213 289 7
213 290 2
213 291 7
213 292 6
213 294 8
213 297 3
213 299 10
214 215 10
214 216 9
214 218 10
214 220 10
214 222 8
214 223 3
214 227 8
214 229 2
214 230 3
214 231 3
214 233 1
214 235 10
214 238 8
214 239 2
214 240 2
214 243 4
214 246 7
214 248 1
214 251 8
214 255 4
214 259 3
214 260 10
214 262 6
214 263 9
214 264 2
214 265 10
214 267 2
214 269 10
214 272 1
214 277 7
214 280 8
214 282 6
214 283 8
214 288 1
214 289 8
214 292 1
214 293 1
214 294 1
214 295 10
215 216 2
215 217 3
215 219 9
215 222 4
215 223 5
215 225 5
215 228 5
215 229 10
215 230 8
215 234 5
215 235 2
215 237 5
215 238 5
215 240 9
215 241 10
215 242 1
215 245 4
215 247 7
215 248 3
215 250 10
215 251 1
215 252 3
215 254 1
215 255 2
215 259 8
215 260 6
215 262 3
215 264 4
215 266 7
215 269 10
215 270 4
215 272 3
215 274 7
215 275 9
215 277 7
215 279 6
215 280 5
215 281 10
215 282 7
215 283 7
215 284 6
215 288 1
215 293 5
215 295 8
215 296 6
215 299 3
215 300 6
216 217 9
216 218 8
216 219 5
216 220 9
216 221 1
216 223 3
216 227 4
216 228 7
216 230 6
216 232 1
216 235 5
216 237 9
216 238 4
216 240 8
216 245 6
216 248 1
216 249 1
216 251 4
216 253 10
216 254 2
216 255 9
216 256 4
216 257 6
216 259 3
216 260 7
216 263 6
216 266 4
216 268 2
216 269 8
216 270 3
216 271 6
216 276 10
216 280 5
216 282 7
216 287 2
216 290 2
216 291 2
216 294 9
216 296 10
216 297 10
216 299 2
216 300 3
217 222 2
217 225 1
217 227 10
217 228 10
217 230 5
217 234 3
217 236 2
217 238 1
217 240 1
217 242 2
217 243 7
217 246 1
217 248 2
217 250 1
217 251 7
217 254 3
217 258 9
217 259 3
217 261 9
217 262 7
217 263 7
217 265 8
217 266 7
217 267 4
217 268 10
217 269 3
217 270 9
217 271 6
217 272 7
217 274 10
217 275 3
217 278 9
217 284 4
217 285 1
217 286 4
217 288 6
217 290 7
217 294 9
217 296 8
218 219 7
218 220 3
218 222 8
218 223 4
218 224 1
218 225 7
218 226 3
218 228 7
218 229 8
218 230 4
218 231 2
218 234 6
218 235 10
218 237 1
218 239 9
218 241 2
218 243 10
218 245 4
218 246 8
218 247 6
218 248 5
218 251 8
218 252 3
218 255 10
218 256 4
218 258 9
218 259 5
218 260 5
218 261 3
218 262 7
218 265 5
218 266 8
218 271 4
218 275 9
218 276 7
218 278 7
218 279 1
218 282 2
218 285 9
218 286 10
218 287 3
218 290 1
218 291 9
218 293 6
218 294 6
218 296 9
219 221 7
219 224 10
219 227 2
219 231 2
219 238 3
219 239 3
219 240 2
219 241 8
219 243 2
219 245 10
219 248 6
219 249 2
219 252 5
219 254 2
219 255 9
219 258 9
219 259 8
219 262 6
219 265 3
219 266 6
219 269 7
219 271 2
219 272 6
219 275 9
219 276 7
219 277 1
219 279 8
219 282 2
219 283 5
219 284 9
219 286 6
219 288 9
219 289 5
219 290 6
219 291 8
219 292 5
219 293 10
219 294 2
219 296 1
219 299 9
220 221 6
220 223 8
220 225 7
220 228 6
220 229 10
220 232 4
220 234 3
220 235 3
220 236 5
220 237 5
220 238 7
220 242 1
220 243 1
220 244 8
220 249 3
220 250 10
220 251 9
220 252 5
220 253 8
220 254 8
220 255 7
220 256 1
220 258 8
220 260 7
220 261 2
220 262 8
220 265 4
220 269 4
220 270 1
220 273 6
220 274 1
220 275 8
220 276 6
220 277 9
220 285 5
220 286 9
220 287 5
220 288 8
220 289 1
220 293 9
220 296 6
220 299 6
221 223 3
221 224 8
221 226 2
221 227 5
221 228 5
221 232 1
221 234 8
221 239 7
221 240 6
221 241 3
221 243 9
221 245 4
221 249 4
221 250 4
221 252 1
221 254 2
221 255 9
221 257 10
221 260 2
221 262 2
221 265 1
221 268 4
221 273 9
221 275 2
221 278 9
221 279 6
221 282 5
221 283 1
221 288 1
221 289 2
221 291 8
221 294 6
221 298 1
222 223 6
222 226 2
222 227 3
222 228 2
222 231 3
222 232 7
222 233 5
222 234 5
222 236 3
222 237 8
222 240 2
222 241 6
222 242 4
222 244 10
222 246 4
222 248 3
222 249 6
222 250 6
222 253 3
222 254 7
222 256 5
222 257 7
222 258 1
222 264 4
222 267 1
222 269 3
222 271 3
222 274 2
222 276 2
222 279 8
222 280 3
222 284 9
222 285 7
222 286 5
222 288 4
222 294 10
222 295 9
222 296 6
222 297 6
223 224 8
223 225 5
223 226 2
223 227 8
223 229 8
223 232 9
223 234 4
223 236 5
223 238 2
223 243 8
223 244 3
223 245 4
223 247 1
223 248 4
223 250 3
223 251 10
223 252 1
223 253 7
223 254 5
223 255 6
223 256 4
223 258 4
223 261 8
223 264 4
223 267 3
223 268 2
223 269 5
223 272 8
223 276 2
223 278 4
223 280 3
223 281 5
223 282 4
223 283 3
223 285 7
223 290 10
223 291 8
223 297 10
223 299 1
223 300 10
224 228 2
224 230 9
224 232 6
224 233 1
224 235 6
224 236 9
224 237 4
224 238 1
224 239 5
224 240 4
224 242 1
224 243 4
224 249 2
224 252 7
224 253 4
224 254 7
224 257 2
224 259 4
224 260 4
224 262 2
224 264 3
224 265 7
224 266 1
224 267 3
224 268 1
224 269 10
224 271 1
224 272 9
224 274 4
224 276 6
224 277 8
224 278 10
224 279 1
224 281 10
224 283 2
224 288 2
224 289 1
224 295 6
224 298 3
224 300 5
225 226 4
225 227 9
225 228 5
225 229 1
225 230 5
225 232 7
225 233 7
225 236 6
225 241 8
225 242 4
225 243 6
225 244 7
225 248 2
225 251 10
225 252 10
225 254 8
225 262 2
225 264 1
225 266 6
225 267 10
225 268 8
225 269 7
225 270 7
225 271 3
225 274 6
225 275 6
225 277 6
225 279 5
225 282 9
225 289 6
225 290 2
225 291 5
225 292 8
225 293 1
225 298 9
225 299 6
226 228 2
226 229 5
226 232 1
226 235 2
226 236 7
226 237 1
226 238 8
226 240 8
226 243 7
226 244 1
226 246 5
226 247 6
226 248 5
226 253 5
226 256 3
226 262 3
226 263 9
226 264 1
226 271 7
226 273 6
226 274 10
226 275 9
226 276 5
226 279 4
226 280 10
226 282 9
226 286 9
226 288 7
226 290 2
226 292 1
226 293 10
226 294 10
226 295 6
226 299 7
226 300 8
227 232 4
227 233 7
227 235 9
227 236 3
227 237 4
227 239 10
227 240 2
227 242 5
227 246 2
227 247 5
227 248 10
227 250 5
227 252 9
227 254 9
227 255 6
227 256 1
227 257 1
227 258 1
227 261 4
227 262 1
227 263 7
227 264 7
227 267 5
227 268 1
227 270 6
227 273 9
227 275 3
227 276 9
227 284 2
227 285 1
227 286 9
227 288 9
227 289 9
227 291 1
227 292 2
227 300 7
228 229 7
228 230 9
228 234 3
228 235 7
228 237 7
228 240 1
228 241 6
228 245 1
228 246 6
228 250 6
228 253 4
228 254 4
228 256 9
228 259 4
228 260 10
228 261 2
228 263 4
228 264 9
228 266 6
228 267 6
228 268 9
228 270 3
228 271 10
228 272 9
228 274 8
228 275 5
228 277 5
228 279 2
228 281 1
228 283 3
228 286 10
228 288 5
228 289 10
228 290 8
228 292 2
228 294 3
228 297 3
228 298 7
228 299 2
228 300 7
229 231 2
229 232 9
229 233 1
229 235 4
229 236 3
229 237 1
229 238 4
229 239 7
229 242 3
229 244 6
229 245 2
229 249 5
229 250 5
229 251 8
229 252 4
229 256 1
229 260 9
229 261 1
229 262 10
229 264 5
229 267 4
229 268 1
229 269 6
229 271 4
229 274 3
229 277 9
229 285 3
229 286 4
229 287 8
229 291 9
229 292 5
229 294 4
229 298 4
229 300 9
230 233 2
230 235 3
230 238 6
230 239 3
230 241 8
230 242 9
230 245 5
230 249 6
230 250 1
230 251 6
230 252 10
230 253 6
230 254 7
230 262 8
230 263 1
230 265 8
230 270 7
230 271 4
230 273 3
230 274 2
230 275 6
230 280 5
230 281 3
230 282 3
230 285 2
230 286 5
230 288 10
230 289 5
230 293 5
230 294 8
230 295 7
230 296 6
230 298 9
230 300 7
231 232 7
231 233 9
231 234 8
231 239 9
231 240 1
231 244 3
231 246 3
231 248 5
231 250 4
231 251 5
231 252 8
231 253 6
231 254 3
231 257 4
231 258 4
231 260 4
231 261 2
231 262 9
231 263 7
231 266 9
231 267 3
231 268 7
231 269 1
231 272 4
231 274 4
231 282 10
231 285 4
231 291 6
231 295 6
231 296 2
231 298 5
231 299 1
231 300 7
232 233 1
232 234 7
232 238 4
232 241 4
232 247 8
232 248 8
232 252 1
232 255 10
232 256 9
232 261 8
232 263 4
232 266 2
232 268 9
232 269 7
232 271 9
232 272 2
232 273 5
232 274 2
232 277 4
232 278 8
232 281 5
232 285 5
232 286 1
232 287 2
232 291 2
232 293 10
232 296 5
232 297 6
232 299 7
233 235 6
233 236 3
233 237 4
233 240 5
233 241 9
233 242 8
233 244 9
233 245 3
233 246 7
233 251 8
233 252 5
233 253 2
233 254 1
233 259 9
233 260 3
233 261 9
233 264 4
233 266 7
233 267 2
233 268 1
233 269 1
233 275 3
233 276 6
233 277 7
233 279 10
233 281 5
233 284 9
233 286 6
233 287 4
233 291 3
233 295 5
233 296 4
233 298 5
233 300 10
234 235 2
234 237 4
234 239 10
234 240 4
234 241 6
234 242 4
234 245 3
234 247 5
234 249 9
234 250 9
234 251 4
234 262 9
234 263 9
234 264 2
234 267 10
234 272 9
234 274 1
234 276 1
234 278 6
234 281 4
234 283 3
234 284 9
234 287 8
234 288 2
234 290 10
234 291 2
234 294 3
234 295 3
234 296 7
234 297 8
234 298 4
235 240 3
235 241 9
235 242 4
235 243 4
235 245 3
235 246 8
235 247 6
235 248 3
235 249 6
235 251 4
235 253 6
235 257 6
235 258 8
235 260 6
235 261 7
235 263 8
235 264 10
235 267 10
235 269 7
235 272 2
235 274 5
235 277 9
235 278 2
235 279 7
235 282 7
235 286 3
235 290 6
235 291 6
235 292 5
235 293 9
235 294 10
235 296 2
235 299 4
236 239 2
236 241 9
236 242 2
236 244 9
236 246 2
236 249 2
236 251 10
236 254 2
236 256 8
236 258 6
236 260 8
236 261 1
236 262 8
236 266 8
236 270 5
236 271 7
236 272 7
236 277 1
236 278 9
236 279 3
236 281 2
236 282 3
236 284 4
236 285 5
236 287 10
236 288 10
236 289 7
236 292 10
236 294 5
236 295 8
236 299 2
237 239 1
237 240 7
237 241 9
237 243 6
237 245 3
237 246 8
237 247 9
237 248 4
237 251 7
237 252 10
237 253 4
237 256 6
237 257 5
237 259 2
237 260 5
237 261 4
237 262 8
237 263 9
237 265 5
237 266 10
237 267 2
237 268 5
237 271 5
237 273 8
237 274 10
237 276 10
237 277 10
237 278 1
237 282 5
237 284 7
237 286 7
237 288 4
237 289 1
237 291 1
237 292 2
237 293 8
237 294 1
237 295 4
237 297 1
237 298 7
237 299 7
237 300 6
238 239 2
238 240 9
238 241 6
238 244 6
238 247 8
238 249 9
238 251 5
238 254 3
238 258 8
238 260 2
238 261 9
238 262 7
238 264 8
238 265 5
238 266 3
238 267 8
238 269 5
238 271 6
238 272 7
238 274 6
238 275 2
238 276 8
238 278 7
238 279 1
238 280 2
238 285 4
238 288 6
238 292 6
238 295 4
238 297 4
238 300 6
239 240 7
239 241 4
239 242 1
239 243 4
239 244 7
239 245 1
239 251 3
239 255 1
239 257 2
239 258 5
239 260 9
239 261 3
239 263 5
239 264 7
239 266 8
239 268 6
239 275 4
239 278 8
239 280 5
239 282 2
239 284 10
239 286 6
239 288 2
239 290 4
239 291 5
239 292 3
239 300 7
240 243 3
240 247 10
240 251 5
240 254 7
240 256 9
240 257 9
240 260 10
240 263 2
240 264 6
240 267 7
240 268 9
240 269 3
240 271 1
240 272 6
240 274 5
240 275 4
240 282 3
240 284 7
240 285 9
240 288 2
240 289 10
240 290 9
240 291 7
240 292 5
240 293 1
240 294 1
240 296 10
240 298 1
240 299 7
240 300 2
241 242 10
241 243 3
241 245 8
241 249 9
241 252 6
241 253 7
241 255 9
241 256 3
241 257 8
241 258 9
241 260 2
241 261 9
241 262 1
241 263 9
241 264 5
241 266 8
241 268 9
241 269 7
241 270 7
241 271 10
241 272 10
241 274 2
241 275 10
241 276 7
241 277 2
241 278 7
241 279 6
241 281 7
241 283 3
241 284 10
241 286 3
241 288 8
241 291 6
241 292 9
241 293 2
241 294 8
241 295 2
241 296 10
241 297 4
241 299 10
242 244 6
242 246 10
242 247 8
242 248 9
242 251 8
242 252 3
242 253 3
242 254 7
242 256 4
242 258 6
242 259 9
242 261 3
242 262 6
242 263 10
242 266 1
242 267 9
242 271 10
242 274 7
242 275 7
242 276 9
242 277 8
242 289 6
242 290 3
242 294 5
242 295 6
242 298 4
243 244 10
243 248 9
243 250 9
243 254 2
243 255 6
243 256 3
243 258 1
243 259 2
243 260 4
243 262 2
243 265 5
243 266 3
243 267 5
243 268 3
243 269 3
243 271 7
243 272 10
243 278 7
243 282 1
243 284 5
243 285 10
243 286 7
243 287 8
243 288 9
243 289 4
243 290 5
243 293 1
243 298 7
243 300 10
244 249 1
244 250 5
244 251 7
244 252 8
244 256 5
244 257 3
244 258 6
244 259 4
244 264 2
244 267 6
244 270 10
244 272 8
244 278 9
244 281 7
244 282 5
244 283 3
244 284 10
244 288 6
244 289 10
244 290 6
244 291 10
244 294 6
244 296 2
244 297 4
244 298 7
244 299 4
244 300 7
245 249 10
245 250 7
245 251 4
245 252 10
245 253 5
245 255 2
245 256 5
245 257 10
245 258 9
245 260 6
245 261 6
245 262 5
245 264 8
245 267 10
245 269 4
245 270 3
245 274 7
245 275 1
245 276 1
245 277 9
245 278 3
245 279 5
245 280 8
245 283 9
245 284 1
245 285 4
245 290 9
245 291 1
245 293 4
245 296 10
245 298 2
246 249 4
246 250 2
246 252 9
246 255 3
246 259 2
246 260 10
246 262 3
246 263 8
246 265 7
246 269 5
246 270 2
246 277 8
246 278 6
246 280 7
246 281 7
246 284 7
246 285 2
246 287 1
246 289 5
246 290 8
246 294 8
246 295 5
246 298 4
246 300 6
247 249 6
247 250 8
247 251 4
247 253 2
247 254 7
247 255 6
247 257 3
247 261 2
247 262 7
247 265 9
247 268 4
247 270 10
247 271 7
247 276 4
247 277 6
247 278 7
247 281 2
247 283 3
247 284 4
247 286 8
247 287 10
247 292 9
247 294 10
247 298 6
247 299 6
247 300 6
248 249 1
248 251 6
248 252 2
248 258 5
248 260 6
248 263 5
248 266 6
248 267 7
248 270 1
248 271 9
248 273 2
248 274 1
248 280 4
248 282 10
248 284 3
248 285 1
248 286 7
248 287 9
248 288 8
248 289 1
248 292 10
248 293 10
248 294 9
248 295 9
248 296 1
248 297 5
248 299 1
248 300 4
249 257 9
249 263 9
249 265 2
249 268 7
249 270 1
249 271 8
249 274 3
249 275 5
249 276 7
249 277 1
249 281 10
249 284 7
249 285 8
249 287 10
249 288 1
249 289 10
249 291 2
249 292 5
249 296 5
249 297 5
249 299 10
250 251 2
250 253 8
250 254 6
250 256 1
250 257 7
250 260 1
250 265 8
250 266 4
250 273 5
250 274 4
250 276 7
250 279 8
250 281 5
250 283 9
250 285 9
250 292 2
250 297 2
250 300 6
251 252 7
251 253 3
251 258 1
251 259 7
251 260 10
251 261 9
251 262 8
251 264 1
251 267 7
251 268 2
251 270 10
251 271 6
251 272 2
251 273 6
251 274 10
251 278 4
251 279 10
251 280 3
251 282 4
251 283 4
251 287 4
251 288 6
251 289 5
251 291 1
251 294 2
251 296 7
251 299 9
252 257 7
252 258 7
252 262 6
252 263 7
252 264 9
252 266 6
252 267 10
252 269 1
252 271 10
252 272 9
252 274 1
252 275 3
252 276 4
252 277 6
252 281 4
252 284 7
252 287 10
252 288 2
252 289 7
252 291 9
252 292 5
252 294 4
252 295 4
252 296 10
252 297 10
252 299 7
253 258 3
253 259 1
253 264 1
253 267 1
253 268 10
253 273 10
253 278 6
253 279 7
253 284 3
253 290 4
253 291 10
253 292 1
253 293 6
253 294 9
253 295 7
253 299 5
253 300 10
254 255 1
254 259 3
254 260 5
254 263 7
254 264 4
254 268 10
254 269 3
254 270 6
254 271 10
254 272 5
254 274 1
254 277 1
254 279 3
254 281 3
254 285 6
254 286 3
254 289 7
254 291 1
254 292 4
254 295 3
254 296 5
255 257 3
255 261 2
255 262 2
255 263 8
255 265 3
255 266 8
255 273 3
255 274 2
255 278 4
255 280 1
255 282 2
255 283 3
255 284 3
255 285 6
255 287 8
255 288 1
255 293 4
255 294 4
255 296 3
255 297 3
255 298 10
255 299 2
256 257 3
256 261 8
256 262 6
256 265 9
256 268 6
256 270 2
256 272 6
256 273 7
256 275 9
256 277 2
256 278 7
256 281 1
256 282 6
256 283 4
256 284 4
256 287 3
256 288 9
256 289 6
256 291 10
256 296 5
256 297 8
256 298 9
256 299 6
257 258 9
257 259 9
257 263 3
257 269 7
257 270 5
257 271 3
257 273 6
257 274 9
257 275 8
257 276 1
257 277 7
257 278 8
257 282 4
257 283 5
257 285 2
257 286 8
257 287 3
257 288 5
257 290 7
257 291 8
257 293 5
257 294 2
257 297 10
257 299 3
258 259 4
258 261 4
258 262 8
258 263 8
258 267 10
258 268 10
258 271 1
258 272 6
258 275 4
258 279 3
258 280 6
258 284 6
258 286 3
258 288 7
258 290 8
258 292 6
258 294 9
258 295 9
258 296 5
258 297 4
258 298 7
258 299 10
258 300 4
259 260 3
259 262 4
259 264 7
259 266 4
259 267 6
259 268 5
259 269 8
259 275 1
259 276 9
259 278 10
259 279 8
259 280 2
259 281 1
259 284 7
259 287 10
259 294 2
259 298 5
259 300 10
260 262 2
260 263 8
260 264 1
260 266 8
260 270 2
260 275 1
260 276 1
260 278 10
260 279 4
260 281 8
260 283 10
260 285 2
260 287 2
260 288 10
260 289 8
260 291 6
260 293 8
260 296 2
260 297 8
260 298 5
261 262 8
261 263 1
261 269 9
261 270 8
261 271 6
261 272 4
261 273 8
261 274 1
261 278 3
261 279 4
261 280 3
261 283 5
261 285 7
261 290 10
261 292 7
261 293 5
261 294 9
261 296 5
261 298 6
262 263 1
262 264 3
262 265 5
262 269 4
262 272 10
262 275 9
262 276 8
262 277 4
262 278 10
262 279 2
262 282 5
262 284 9
262 285 6
262 288 5
262 290 5
262 293 9
262 295 5
262 296 10
262 297 8
262 298 8
262 299 6
263 264 4
263 265 2
263 266 10
263 270 5
263 274 3
263 277 9
263 278 6
263 280 3
263 282 5
263 284 10
263 285 1
263 288 8
263 289 3
263 290 6
263 291 3
263 293 2
263 294 10
263 296 2
263 298 7
264 265 4
264 270 5
264 271 9
264 273 6
264 275 7
264 276 4
264 277 6
264 279 1
264 280 9
264 284 8
264 285 1
264 288 3
264 289 6
264 290 10
264 293 5
264 294 3
264 296 6
264 297 9
264 298 7
264 299 1
265 267 9
265 269 9
265 273 3
265 275 10
265 276 3
265 278 8
265 280 4
265 282 7
265 283 6
265 288 9
265 290 1
265 295 4
265 297 10
265 298 3
265 299 1
266 267 3
266 268 6
266 269 6
266 270 10
266 273 7
266 276 8
266 277 1
266 278 2
266 280 7
266 281 8
266 282 10
266 284 4
266 285 10
266 286 7
266 289 7
266 290 6
266 293 7
266 297 1
266 298 1
266 299 5
267 273 4
267 276 3
267 277 10
267 278 1
267 279 6
267 280 3
267 285 3
267 289 2
267 290 2
267 293 4
267 297 9
267 299 7
267 300 9
268 269 3
268 272 4
268 276 6
268 277 5
268 281 2
268 282 1
268 283 9
268 287 2
268 289 10
268 290 10
268 291 9
268 292 6
268 294 1
268 296 9
268 298 2
269 270 7
269 271 3
269 274 3
269 278 7
269 279 5
269 280 3
269 281 10
269 284 2
269 286 6
269 288 3
269 296 10
269 297 5
269 300 8
270 273 2
270 274 8
270 276 5
270 281 3
270 283 5
270 285 2
270 287 9
270 288 1
270 289 3
270 291 7
270 293 4
270 294 9
270 297 6
270 298 7
270 300 6
271 273 5
271 275 3
271 277 10
271 278 3
271 280 9
271 282 9
271 283 6
271 286 6
271 287 5
271 289 5
271 290 1
271 291 10
271 293 9
271 296 1
271 297 3
271 300 6
272 276 3
272 278 10
272 282 2
272 283 4
272 284 3
272 285 10
272 287 3
272 289 2
272 292 1
272 295 9
272 297 8
273 274 2
273 276 1
273 278 9
273 280 1
273 282 3
273 283 6
273 284 3
273 286 2
273 288 3
273 293 8
273 296 2
273 298 1
274 278 10
274 281 1
274 284 8
274 288 6
274 289 5
274 290 5
274 300 4
275 276 10
275 278 3
275 279 7
275 282 6
275 283 5
275 285 10
275 287 7
275 289 8
275 290 4
275 297 6
275 298 5
276 277 10
276 279 10
276 280 6
276 285 10
276 286 8
276 287 4
276 288 5
276 289 4
276 290 5
276 293 10
276 294 6
276 295 6
276 299 9
276 300 8
277 278 9
277 280 7
277 281 3
277 282 5
277 283 5
277 287 10
277 288 10
277 289 10
277 290 4
277 293 2
277 295 2
278 279 2
278 282 10
278 285 1
278 286 4
278 287 6
278 293 7
278 297 3
278 299 6
278 300 8
279 280 5
279 282 6
279 284 9
279 286 5
279 291 3
279 295 5
279 296 7
279 297 8
279 300 10
280 281 6
280 284 4
280 288 8
280 291 2
280 292 10
280 294 5
280 295 5
280 297 7
280 299 6
280 300 9
281 283 1
281 284 4
281 285 7
281 286 5
281 289 6
281 290 9
281 293 3
281 295 3
281 296 4
281 297 2
281 298 2
281 300 2
282 283 9
282 284 7
282 286 3
282 290 4
282 291 8
282 297 9
282 300 5
283 286 4
283 287 10
283 288 1
283 289 2
283 290 6
283 293 8
283 294 8
283 295 9
283 296 9
284 286 9
284 289 1
284 291 1
284 293 10
284 295 5
284 296 3
284 297 2
284 298 9
284 299 4
284 300 2
285 286 3
285 287 9
285 288 7
285 289 6
285 290 9
285 291 5
285 293 10
285 295 5
285 296 1
285 298 7
286 287 9
286 290 4
286 291 3
286 292 3
286 294 1
286 295 10
286 297 1
286 300 8
287 289 7
287 290 8
287 295 2
287 296 5
287 300 2
288 289 2
288 292 1
288 295 7
288 296 10
288 298 7
288 299 8
289 291 6
289 292 9
289 293 6
289 294 6
289 295 2
289 296 9
289 297 7
289 299 6
289 300 1
290 291 4
290 292 3
290 294 3
290 296 8
290 299 6
291 292 3
291 293 4
291 295 5
291 297 8
291 298 1
291 300 10
292 294 1
292 295 9
293 294 4
293 297 4
293 298 10
293 299 7
293 300 4
294 296 1
294 298 6
294 300 3
295 297 10
296 297 6
296 298 1
296 300 7
298 299 4
