118 179 216.333
6
6
4
6
4
2
2
7
1
6
5
7
7
8
3
5
7
5
7
4
5
3
3
1
4
2
6
4
5
7
4
1
4
5
7
4
2
4
6
2
2
6
4
5
3
9
8
10
7
3
6
8
6
6
6
9
4
9
8
8
10
4
10
5
7
4
8
7
6
10
7
6
8
8
9
4
7
8
6
9
9
9
10
6
6
4
5
6
6
8
5
6
5
5
8
7
9
7
6
5
3
9
7
5
9
6
10
9
10
9
10
10
10
5
4
7
5
8
1 2 9
1 4 2
1 5 1
1 56 1
1 57 6
2 3 7
2 56 10
2 58 10
3 4 9
3 59 7
3 60 9
3 61 10
3 62 9
3 112 9
4 63 5
5 6 7
5 64 9
6 7 3
6 13 7
6 65 7
7 8 9
7 37 5
7 62 3
7 66 6
7 67 4
8 9 7
8 58 5
8 61 8
8 68 8
9 10 8
9 66 9
9 69 8
10 11 10
10 70 9
10 71 7
11 12 10
11 13 3
11 68 1
11 72 7
11 73 8
12 41 10
12 73 6
12 74 8
13 14 10
14 15 8
14 29 7
14 42 10
15 16 9
15 30 7
15 75 9
16 17 5
16 20 7
16 41 2
16 43 5
16 44 7
16 45 1
16 76 2
16 77 6
17 18 2
17 22 1
17 23 3
17 29 8
17 44 2
18 19 2
18 23 8
18 46 9
18 78 1
18 79 10
19 24 9
19 80 5
19 81 4
19 82 5
19 83 10
19 84 8
20 21 10
20 25 5
20 47 7
20 85 9
21 25 9
21 31 10
21 47 9
21 48 4
21 86 2
22 23 10
22 49 7
22 50 5
22 87 8
23 87 6
23 88 8
24 26 10
24 46 10
24 82 10
24 89 10
25 47 7
25 90 10
25 91 2
26 27 7
26 28 5
26 89 7
26 92 10
27 28 7
27 32 7
27 51 7
27 52 8
27 83 3
27 84 7
27 93 1
28 34 10
28 92 6
28 94 5
28 95 8
29 81 9
29 113 10
30 31 1
30 48 1
30 75 1
31 42 10
31 48 9
32 33 6
32 36 10
32 51 2
33 51 6
33 52 10
33 96 3
33 97 3
34 35 10
34 98 2
34 99 10
35 53 8
35 98 10
35 100 1
35 101 9
36 102 10
36 114 7
36 115 8
37 38 6
37 103 8
38 39 7
38 40 7
38 67 8
38 104 1
39 49 8
39 54 7
39 105 7
40 54 8
40 106 7
40 107 7
41 74 2
42 86 8
43 55 7
43 108 7
44 55 7
45 91 10
45 109 8
46 53 9
49 110 10
50 110 7
50 116 9
52 96 9
53 100 8
54 65 8
55 76 7
57 60 7
59 63 7
64 117 9
69 111 8
70 72 7
71 108 10
77 90 10
78 88 9
79 80 10
85 109 7
93 95 9
94 99 9
97 102 8
101 118 8
103 106 9
104 107 9
105 111 8
