57 78 156.75
1
2
9
1
3
6
2
7
4
6
7
5
5
7
5
3
1
3
2
1
7
2
5
1
10
9
1
8
6
6
10
9
8
8
6
10
9
8
2
5
1
7
2
2
2
6
9
8
1
8
10
9
3
3
6
10
8
1 2 9
1 3 9
1 23 7
1 24 9
2 14 1
2 15 5
2 23 1
3 4 2
3 25 9
4 5 2
4 8 9
4 16 5
4 26 5
5 6 6
5 7 3
5 9 3
5 10 10
5 16 5
6 7 1
6 9 1
6 15 4
6 17 6
6 27 7
7 17 3
7 28 9
7 29 4
8 25 7
8 28 7
8 29 7
9 12 7
9 30 3
10 11 10
10 18 6
10 31 9
11 18 10
11 19 6
11 20 8
11 32 10
12 13 8
12 30 8
12 33 7
13 33 7
13 34 10
13 35 4
14 15 9
14 21 9
16 36 9
17 37 10
18 38 7
19 39 10
19 40 9
20 22 8
20 42 10
21 43 10
21 44 10
22 34 9
22 45 9
24 46 8
26 32 9
27 47 9
31 37 9
35 42 10
36 38 8
39 48 7
40 41 9
41 49 9
41 50 10
43 51 9
44 52 8
45 53 8
46 48 8
47 52 9
49 55 10
50 51 8
53 54 9
54 56 8
54 57 10
55 56 8
