200 4123 733.333
6
5
2
4
4
6
6
5
3
2
7
10
4
6
5
10
4
5
4
10
9
4
4
6
10
3
8
7
5
6
6
10
4
9
9
10
10
4
7
10
9
6
4
10
5
7
6
6
10
5
1
7
6
10
6
6
9
7
5
7
10
5
4
8
7
9
5
9
7
10
10
9
9
8
5
4
6
10
5
9
8
4
4
4
10
7
7
8
6
6
9
6
5
7
4
8
9
8
6
8
9
8
9
7
5
10
6
4
7
6
5
9
5
7
7
7
10
6
8
4
6
4
6
5
5
9
6
10
7
8
4
9
6
7
7
8
7
10
8
8
8
5
6
10
4
8
9
7
8
8
9
6
7
7
4
5
4
9
6
8
8
4
8
6
6
7
4
8
7
10
7
9
7
6
9
9
5
10
9
7
8
9
7
8
6
10
10
7
8
5
9
7
7
10
8
10
6
4
9
7
1 2 1
1 3 3
1 5 7
1 6 2
1 7 5
1 8 2
1 9 6
1 10 2
1 11 6
1 12 4
1 13 2
1 14 2
1 15 6
1 16 7
1 18 1
1 19 4
1 20 4
1 21 4
1 22 6
1 23 4
1 24 1
1 25 2
1 26 1
1 27 3
1 28 6
1 29 6
1 31 1
1 32 7
1 33 5
1 34 5
1 35 7
1 36 1
1 37 6
1 38 7
1 39 3
1 40 4
1 41 5
1 42 1
1 43 5
1 44 4
1 45 6
1 46 8
1 47 3
1 48 4
1 49 6
1 50 7
1 51 2
1 52 6
1 53 1
1 54 1
1 55 5
1 56 1
1 58 7
1 59 3
1 60 5
1 61 4
1 62 4
1 63 6
1 65 4
1 66 2
1 67 3
1 68 2
1 69 2
1 71 6
1 72 6
1 73 4
1 74 4
1 75 2
1 76 6
1 77 1
1 78 5
1 79 6
1 82 5
1 85 1
1 86 7
1 87 5
1 88 6
1 90 7
1 91 2
1 93 7
1 95 4
1 96 5
1 99 3
1 102 2
1 104 5
1 107 4
1 108 3
1 110 3
1 112 7
1 113 6
1 114 6
1 115 6
1 116 7
1 117 2
1 118 1
1 120 2
1 121 4
1 122 2
1 124 4
1 125 6
1 130 5
1 131 4
1 136 3
1 138 5
1 139 6
1 140 1
1 141 7
1 144 3
1 145 7
1 146 7
1 147 1
1 155 7
1 156 3
1 157 3
1 160 1
1 161 7
1 162 3
1 163 1
1 164 6
1 165 3
1 171 5
1 172 3
1 173 6
1 177 2
1 178 5
1 183 7
1 184 2
1 186 2
1 190 6
1 191 5
1 192 7
1 193 4
2 3 2
2 4 3
2 5 4
2 6 1
2 7 5
2 8 5
2 9 2
2 10 6
2 11 5
2 13 2
2 14 1
2 15 5
2 18 3
2 19 6
2 20 1
2 21 1
2 22 2
2 23 1
2 24 3
2 25 4
2 26 6
2 27 4
2 28 4
2 29 4
2 31 1
2 32 3
2 34 1
2 35 1
2 36 7
2 37 3
2 39 4
2 40 3
2 41 5
2 42 5
2 43 4
2 44 1
2 46 7
2 47 1
2 49 2
2 50 4
2 51 5
2 52 7
2 53 2
2 54 3
2 55 2
2 56 1
2 58 2
2 60 1
2 61 2
2 62 5
2 65 2
2 66 3
2 67 2
2 68 6
2 69 1
2 70 3
2 71 4
2 72 7
2 73 3
2 74 6
2 75 2
2 76 4
2 77 3
2 78 2
2 79 1
2 82 2
2 83 3
2 85 3
2 86 5
2 87 4
2 88 6
2 89 1
2 90 1
2 91 4
2 92 4
2 93 2
2 95 2
2 96 6
2 99 7
2 102 5
2 103 4
2 104 1
2 106 5
2 107 4
2 109 7
2 110 3
2 113 2
2 114 6
2 115 2
2 116 1
2 117 2
2 120 2
2 124 5
2 126 1
2 130 4
2 131 6
2 132 4
2 133 7
2 136 5
2 138 7
2 141 5
2 142 5
2 144 1
2 145 2
2 146 3
2 147 7
2 152 2
2 156 6
2 157 6
2 160 1
2 161 4
2 162 2
2 163 1
2 164 3
2 166 7
2 169 1
2 171 6
2 177 7
2 178 7
2 179 2
2 180 7
2 183 7
2 186 1
2 187 1
2 190 2
2 193 7
3 4 1
3 5 5
3 6 2
3 7 4
3 8 3
3 9 1
3 10 5
3 11 7
3 13 5
3 14 3
3 15 5
3 17 4
3 18 7
3 19 3
3 20 6
3 21 6
3 22 2
3 24 6
3 25 3
3 26 6
3 27 1
3 28 7
3 29 5
3 32 6
3 34 4
3 35 1
3 36 1
3 37 1
3 39 7
3 40 6
3 41 3
3 42 3
3 43 1
3 44 2
3 45 5
3 47 1
3 49 2
3 50 2
3 52 3
3 53 1
3 54 4
3 55 6
3 56 3
3 58 3
3 59 4
3 60 2
3 61 2
3 62 6
3 63 7
3 65 6
3 66 7
3 67 7
3 68 3
3 69 3
3 71 2
3 73 3
3 74 4
3 75 6
3 76 2
3 78 1
3 79 4
3 80 3
3 82 2
3 83 2
3 84 6
3 85 6
3 86 1
3 87 5
3 89 4
3 90 7
3 91 1
3 92 6
3 93 1
3 95 4
3 96 1
3 97 4
3 99 5
3 102 4
3 103 2
3 106 7
3 107 5
3 108 6
3 109 5
3 110 4
3 112 3
3 113 5
3 115 7
3 117 7
3 118 6
3 121 1
3 122 2
3 125 1
3 126 2
3 127 2
3 130 7
3 131 6
3 137 5
3 140 7
3 141 3
3 142 1
3 143 4
3 144 5
3 145 2
3 146 7
3 148 1
3 152 3
3 155 4
3 157 3
3 160 6
3 161 6
3 166 2
3 169 2
3 171 7
3 172 1
3 173 5
3 177 1
3 178 4
3 183 6
3 184 1
3 187 2
3 188 5
4 7 1
4 8 6
4 9 7
4 11 7
4 13 4
4 15 7
4 16 5
4 19 6
4 21 2
4 22 2
4 23 5
4 26 5
4 28 4
4 32 6
4 36 1
4 38 4
4 42 1
4 44 5
4 45 3
4 47 2
4 49 6
4 51 1
4 52 2
4 53 7
4 54 2
4 59 6
4 62 7
4 63 4
4 65 2
4 68 2
4 69 3
4 70 7
4 72 5
4 75 1
4 76 4
4 79 1
4 82 5
4 85 3
4 86 2
4 90 4
4 95 7
4 97 2
4 108 1
4 109 4
4 111 2
4 112 6
4 113 4
4 115 2
4 116 1
4 117 6
4 118 7
4 122 6
4 124 3
4 125 3
4 130 3
4 131 3
4 138 7
4 139 7
4 140 4
4 142 6
4 143 2
4 144 5
4 146 7
4 152 7
4 153 5
4 155 5
4 171 10
4 172 5
4 177 1
4 178 4
4 179 6
4 183 5
4 185 2
4 187 4
4 188 6
4 190 1
4 191 6
4 194 6
5 6 6
5 8 7
5 9 7
5 10 3
5 11 7
5 12 5
5 13 5
5 14 1
5 18 7
5 20 5
5 23 6
5 24 4
5 25 3
5 26 1
5 27 1
5 29 3
5 31 1
5 32 7
5 34 7
5 35 6
5 36 5
5 37 7
5 39 5
5 40 2
5 42 1
5 50 2
5 51 3
5 52 4
5 58 4
5 61 3
5 68 7
5 77 3
5 78 1
5 79 3
5 80 2
5 81 2
5 82 2
5 84 1
5 93 3
5 98 2
5 99 4
5 100 7
5 101 7
5 107 7
5 110 3
5 114 7
5 118 5
5 123 3
5 127 5
5 128 3
5 133 5
5 134 6
5 136 6
5 137 4
5 144 5
5 149 6
5 154 3
5 160 4
5 164 6
5 165 7
5 167 2
5 173 7
5 174 1
5 192 4
5 193 2
5 195 4
6 8 3
6 9 4
6 10 6
6 11 5
6 13 3
6 14 5
6 15 2
6 18 4
6 19 3
6 20 2
6 21 7
6 22 3
6 23 2
6 24 4
6 25 2
6 26 2
6 27 5
6 28 6
6 29 6
6 31 3
6 32 4
6 34 7
6 35 4
6 36 1
6 37 6
6 40 7
6 42 5
6 44 7
6 46 10
6 47 3
6 50 6
6 51 6
6 52 2
6 53 5
6 58 4
6 61 3
6 62 6
6 65 5
6 66 1
6 67 7
6 68 1
6 69 5
6 70 2
6 73 7
6 74 7
6 75 2
6 76 6
6 78 2
6 79 3
6 82 2
6 87 3
6 88 2
6 90 3
6 91 7
6 93 4
6 96 2
6 99 2
6 103 7
6 113 4
6 114 6
6 115 1
6 117 6
6 120 2
6 121 1
6 124 7
6 130 4
6 136 3
6 139 6
6 140 4
6 141 5
6 142 4
6 144 5
6 145 4
6 146 7
6 147 6
6 156 1
6 157 1
6 160 3
6 161 7
6 169 1
6 173 3
6 177 7
6 191 7
6 192 7
6 196 1
7 8 1
7 9 2
7 10 6
7 11 7
7 13 2
7 14 6
7 15 5
7 16 5
7 19 1
7 21 5
7 22 5
7 23 7
7 24 1
7 25 5
7 27 3
7 28 2
7 29 2
7 33 5
7 34 5
7 38 3
7 39 7
7 41 6
7 43 1
7 48 3
7 55 7
7 56 1
7 57 4
7 58 7
7 60 6
7 66 2
7 71 7
7 72 2
7 83 1
7 85 2
7 87 5
7 93 2
7 94 1
7 96 6
7 99 7
7 102 1
7 104 5
7 107 6
7 110 7
7 111 7
7 119 7
7 132 3
7 148 4
7 150 7
7 163 4
7 168 7
7 170 7
7 171 7
7 175 2
7 180 2
7 186 6
7 189 2
7 197 7
7 198 2
8 9 5
8 10 6
8 11 3
8 12 3
8 13 5
8 14 3
8 18 5
8 20 1
8 21 5
8 22 7
8 23 5
8 24 6
8 26 3
8 27 1
8 28 6
8 29 2
8 31 3
8 32 3
8 35 6
8 36 1
8 37 5
8 40 4
8 42 1
8 44 4
8 46 9
8 47 4
8 50 4
8 51 2
8 52 4
8 53 3
8 55 3
8 58 6
8 61 7
8 62 3
8 66 7
8 67 5
8 69 5
8 73 3
8 75 6
8 76 7
8 78 7
8 81 4
8 82 5
8 84 1
8 88 7
8 91 2
8 93 6
8 96 5
8 100 4
8 103 6
8 107 7
8 113 6
8 114 2
8 120 6
8 121 2
8 129 3
8 130 2
8 131 4
8 134 4
8 136 1
8 141 6
8 144 4
8 145 6
8 146 1
8 147 6
8 151 6
8 152 1
8 156 3
8 157 7
8 160 6
8 169 7
8 173 5
8 184 6
8 187 5
8 192 6
8 196 6
9 10 1
9 11 5
9 12 3
9 13 7
9 14 6
9 15 6
9 17 7
9 18 6
9 19 5
9 21 5
9 22 7
9 23 6
9 24 7
9 25 2
9 27 7
9 28 6
9 29 3
9 30 7
9 32 7
9 34 7
9 36 7
9 39 1
9 41 5
9 42 7
9 43 7
9 44 7
9 45 4
9 47 2
9 49 6
9 51 5
9 54 2
9 59 3
9 60 6
9 61 3
9 62 5
9 63 5
9 64 7
9 65 2
9 66 1
9 67 2
9 68 6
9 69 3
9 71 5
9 74 4
9 76 3
9 79 7
9 82 7
9 85 1
9 86 1
9 89 6
9 90 7
9 92 1
9 96 2
9 97 6
9 99 6
9 102 4
9 104 3
9 105 3
9 106 7
9 108 1
9 109 2
9 112 3
9 113 7
9 114 6
9 115 4
9 116 6
9 117 7
9 122 6
9 124 1
9 130 7
9 136 3
9 138 6
9 142 3
9 143 4
9 144 7
9 145 5
9 146 2
9 148 2
9 153 6
9 157 1
9 158 5
9 162 2
9 163 2
9 169 5
9 176 7
9 177 2
9 178 3
9 179 7
9 181 9
9 185 3
9 186 3
9 190 6
9 194 5
9 198 5
9 199 3
10 11 5
10 12 4
10 13 6
10 14 2
10 15 4
10 16 6
10 18 3
10 19 4
10 20 4
10 21 4
10 22 4
10 23 2
10 24 4
10 25 2
10 26 5
10 27 7
10 28 7
10 29 3
10 30 7
10 32 1
10 33 6
10 34 3
10 35 4
10 36 6
10 37 3
10 39 4
10 40 1
10 41 1
10 42 7
10 43 7
10 44 6
10 46 10
10 47 4
10 50 5
10 51 6
10 52 1
10 53 2
10 55 5
10 56 2
10 57 4
10 58 7
10 60 4
10 61 3
10 62 1
10 65 3
10 66 4
10 67 1
10 68 5
10 69 2
10 71 4
10 74 5
10 75 7
10 77 4
10 78 2
10 79 6
10 82 1
10 83 3
10 86 1
10 87 4
10 88 2
10 90 2
10 91 3
10 93 4
10 94 6
10 95 1
10 96 3
10 99 5
10 102 7
10 103 2
10 107 5
10 109 3
10 110 2
10 113 5
10 114 4
10 115 6
10 117 3
10 118 7
10 120 5
10 121 7
10 130 1
10 131 7
10 136 1
10 139 4
10 141 4
10 144 6
10 145 5
10 146 1
10 147 5
10 152 3
10 155 7
10 156 4
10 157 6
10 161 1
10 162 1
10 163 6
10 169 6
10 173 5
10 177 5
10 187 2
10 188 5
10 196 7
11 13 3
11 14 4
11 15 3
11 18 4
11 19 7
11 20 7
11 21 4
11 22 5
11 23 2
11 24 4
11 25 4
11 26 4
11 27 4
11 28 1
11 29 6
11 30 3
11 32 6
11 34 7
11 35 4
11 36 7
11 37 3
11 39 5
11 40 7
11 42 3
11 43 1
11 44 1
11 45 6
11 46 7
11 47 7
11 49 3
11 50 2
11 51 6
11 52 6
11 53 4
11 58 5
11 60 2
11 61 2
11 62 4
11 64 2
11 65 7
11 66 3
11 67 5
11 68 2
11 69 5
11 70 7
11 72 5
11 74 3
11 75 2
11 76 1
11 79 1
11 82 1
11 87 3
11 88 6
11 90 3
11 93 1
11 95 5
11 97 4
11 99 5
11 102 2
11 103 4
11 113 7
11 114 3
11 117 5
11 120 2
11 121 6
11 124 7
11 125 6
11 130 3
11 131 6
11 136 7
11 138 2
11 139 3
11 142 2
11 144 7
11 145 4
11 146 5
11 156 5
11 157 4
11 160 5
11 161 2
11 162 6
11 166 2
11 169 4
11 172 1
11 173 5
11 177 3
11 178 5
11 179 1
11 183 4
11 186 2
11 188 6
11 190 6
11 191 3
11 192 2
11 194 7
12 13 7
12 14 3
12 15 6
12 18 3
12 22 7
12 23 5
12 25 6
12 26 3
12 35 2
12 36 7
12 37 7
12 43 6
12 51 6
12 52 5
12 54 7
12 55 6
12 58 5
12 59 1
12 61 4
12 64 2
12 65 6
12 67 7
12 69 6
12 76 3
12 78 2
12 82 7
12 85 6
12 90 2
12 93 6
12 99 7
12 109 4
12 113 5
12 117 3
12 124 1
12 130 4
12 136 1
12 139 5
12 164 7
12 169 5
12 171 7
12 192 6
12 193 7
13 14 4
13 15 1
13 17 6
13 18 3
13 19 4
13 20 5
13 21 4
13 22 3
13 23 6
13 24 6
13 25 4
13 26 5
13 27 6
13 28 1
13 29 3
13 32 3
13 34 7
13 35 7
13 36 5
13 37 2
13 39 2
13 42 2
13 43 4
13 45 1
13 47 1
13 49 5
13 50 5
13 51 3
13 52 5
13 53 6
13 54 5
13 58 2
13 59 7
13 60 6
13 61 6
13 63 7
13 65 7
13 66 5
13 67 4
13 68 2
13 69 3
13 70 1
13 72 1
13 74 7
13 75 2
13 76 3
13 78 5
13 79 1
13 82 7
13 85 3
13 86 7
13 90 5
13 91 1
13 93 4
13 95 4
13 96 7
13 97 2
13 99 3
13 102 2
13 107 4
13 108 7
13 112 7
13 113 4
13 117 4
13 122 3
13 125 4
13 126 7
13 130 4
13 131 4
13 139 5
13 140 2
13 146 3
13 147 4
13 157 5
13 162 4
13 169 1
13 171 10
13 172 5
13 177 7
13 178 3
13 179 4
13 183 1
13 194 6
14 15 6
14 16 7
14 19 2
14 20 4
14 21 1
14 22 3
14 23 7
14 24 1
14 25 3
14 27 2
14 28 7
14 29 7
14 32 6
14 33 1
14 34 1
14 36 4
14 37 4
14 38 7
14 41 4
14 42 5
14 43 7
14 44 1
14 46 7
14 47 1
14 48 3
14 50 4
14 51 3
14 56 5
14 57 6
14 58 6
14 60 2
14 61 7
14 62 6
14 66 2
14 67 6
14 68 3
14 71 3
14 72 5
14 74 3
14 75 2
14 76 3
14 78 1
14 79 6
14 82 3
14 83 7
14 85 6
14 88 5
14 90 2
14 93 4
14 94 4
14 96 5
14 99 3
14 104 3
14 107 3
14 110 5
14 111 4
14 113 3
14 118 1
14 121 6
14 132 3
14 146 1
14 148 4
14 163 7
14 171 3
14 180 3
14 186 3
14 189 6
14 197 2
14 198 3
15 17 7
15 19 1
15 21 7
15 22 5
15 23 3
15 25 3
15 28 3
15 29 1
15 30 3
15 32 5
15 34 6
15 35 7
15 36 5
15 39 7
15 42 2
15 43 5
15 44 6
15 45 1
15 47 2
15 49 5
15 51 3
15 52 7
15 53 4
15 54 5
15 59 2
15 61 3
15 62 3
15 63 2
15 64 2
15 65 6
15 66 6
15 67 2
15 68 5
15 69 7
15 70 7
15 71 1
15 74 4
15 75 4
15 76 4
15 79 2
15 82 3
15 86 7
15 87 1
15 89 4
15 90 2
15 92 6
15 95 6
15 97 1
15 99 3
15 102 7
15 104 1
15 105 2
15 106 3
15 108 7
15 109 6
15 112 4
15 113 1
15 114 1
15 115 4
15 116 1
15 117 7
15 125 2
15 126 5
15 130 3
15 138 3
15 139 1
15 142 4
15 146 7
15 152 6
15 157 3
15 161 1
15 162 4
15 166 1
15 176 6
15 177 3
15 178 6
15 179 3
15 181 8
15 185 5
15 188 3
15 196 1
16 21 1
16 24 4
16 26 5
16 27 5
16 33 3
16 34 7
16 38 3
16 39 3
16 41 2
16 43 1
16 48 5
16 55 5
16 56 1
16 57 3
16 60 2
16 71 2
16 72 4
16 83 4
16 93 4
16 94 1
16 95 4
16 102 7
16 107 6
16 110 7
16 111 3
16 118 6
16 119 8
16 132 3
16 150 4
16 155 5
16 170 7
16 180 4
16 189 4
17 19 2
17 23 2
17 32 4
17 40 3
17 44 6
17 45 3
17 49 3
17 54 3
17 59 2
17 63 1
17 64 6
17 70 6
17 75 5
17 76 1
17 86 7
17 87 4
17 90 6
17 97 7
17 108 4
17 109 1
17 112 7
17 115 6
17 116 1
17 122 7
17 124 2
17 125 1
17 138 6
17 139 6
17 140 7
17 142 2
17 143 6
17 153 7
17 158 4
17 172 3
17 178 7
17 179 2
17 181 10
17 185 1
17 187 3
17 190 5
17 194 1
18 20 3
18 22 7
18 23 5
18 24 7
18 27 4
18 28 6
18 29 6
18 31 2
18 32 4
18 35 7
18 36 2
18 37 4
18 40 5
18 42 6
18 47 2
18 50 4
18 51 1
18 52 3
18 53 6
18 58 7
18 61 7
18 67 2
18 68 5
18 77 4
18 78 7
18 80 5
18 81 5
18 82 7
18 84 6
18 91 1
18 96 5
18 98 2
18 99 2
18 100 3
18 103 5
18 113 6
18 120 7
18 121 5
18 123 7
18 127 3
18 128 7
18 129 3
18 133 2
18 134 10
18 136 5
18 137 2
18 141 7
18 147 6
18 151 5
18 154 4
18 160 1
18 164 5
18 165 6
18 173 6
18 192 6
18 193 5
18 195 7
18 196 5
19 21 5
19 22 3
19 23 6
19 25 7
19 26 4
19 28 5
19 32 2
19 34 2
19 36 2
19 38 3
19 39 4
19 42 5
19 44 7
19 45 3
19 49 7
19 53 4
19 54 6
19 59 6
19 60 7
19 63 7
19 64 7
19 65 3
19 68 3
19 69 6
19 70 3
19 73 5
19 74 5
19 75 7
19 76 1
19 78 3
19 79 5
19 86 2
19 87 4
19 89 1
19 90 5
19 92 3
19 97 2
19 102 1
19 105 5
19 106 1
19 108 7
19 109 6
19 112 3
19 115 4
19 117 5
19 122 6
19 124 7
19 126 5
19 138 7
19 142 6
19 143 6
19 146 5
19 152 2
19 153 1
19 157 1
19 158 3
19 162 2
19 166 2
19 176 2
19 178 6
19 183 8
19 185 6
19 190 7
19 199 2
20 22 5
20 24 5
20 25 3
20 26 4
20 27 6
20 28 4
20 29 3
20 31 2
20 34 5
20 35 1
20 37 6
20 39 3
20 40 2
20 50 6
20 51 6
20 56 6
20 58 2
20 68 6
20 77 3
20 80 6
20 81 1
20 84 5
20 98 7
20 100 6
20 107 4
20 118 6
20 123 6
20 127 2
20 128 4
20 129 3
20 134 7
20 149 2
20 154 4
20 160 6
20 164 7
20 165 7
20 167 4
20 174 1
20 182 3
20 193 1
20 195 1
21 22 3
21 23 4
21 25 1
21 26 2
21 28 1
21 32 4
21 34 2
21 38 6
21 39 4
21 42 4
21 44 4
21 45 5
21 47 2
21 49 5
21 51 4
21 53 4
21 54 1
21 59 2
21 63 5
21 65 1
21 68 7
21 69 6
21 70 1
21 75 5
21 78 1
21 79 1
21 85 6
21 86 3
21 90 5
21 92 7
21 99 1
21 102 3
21 108 4
21 109 7
21 112 5
21 117 5
21 122 4
21 131 3
21 139 5
21 140 6
21 144 2
21 146 2
21 155 6
21 171 10
21 172 7
21 177 4
21 178 6
21 187 7
22 23 5
22 24 7
22 25 2
22 26 6
22 27 6
22 28 7
22 29 5
22 32 7
22 34 3
22 35 7
22 36 5
22 37 4
22 39 4
22 42 6
22 43 6
22 44 3
22 45 2
22 47 6
22 49 7
22 50 2
22 51 2
22 52 3
22 53 6
22 54 3
22 58 6
22 59 2
22 60 6
22 61 5
22 62 6
22 63 5
22 65 6
22 66 7
22 67 7
22 68 6
22 69 3
22 70 3
22 73 3
22 74 6
22 75 2
22 76 6
22 79 2
22 82 1
22 87 3
22 89 7
22 90 5
22 91 2
22 93 1
22 95 4
22 96 6
22 99 5
22 102 5
22 103 6
22 107 5
22 108 2
22 112 1
22 113 5
22 115 3
22 117 4
22 125 6
22 130 7
22 131 2
22 138 3
22 139 7
22 140 3
22 142 4
22 146 5
22 157 4
22 161 6
22 162 2
22 172 7
22 177 1
22 183 10
22 191 3
22 194 5
23 28 4
23 29 6
23 32 1
23 34 3
23 36 4
23 39 5
23 42 2
23 43 6
23 44 5
23 45 4
23 47 4
23 49 1
23 52 1
23 53 5
23 54 3
23 59 5
23 61 5
23 63 1
23 65 2
23 67 1
23 68 4
23 69 6
23 73 4
23 74 5
23 75 7
23 76 2
23 79 2
23 82 5
23 85 4
23 87 1
23 90 6
23 99 6
23 108 7
23 112 7
23 115 7
23 117 5
23 122 7
23 125 3
23 130 7
23 131 5
23 139 4
23 140 2
23 144 5
23 146 6
23 152 4
23 161 6
23 162 3
23 166 4
23 171 10
23 172 4
23 173 4
23 178 6
23 183 6
23 191 7
23 194 7
23 197 6
24 26 5
24 27 4
24 28 4
24 29 3
24 31 4
24 34 2
24 35 1
24 36 6
24 37 3
24 40 3
24 41 6
24 44 7
24 50 6
24 51 5
24 56 2
24 58 6
24 68 4
24 77 3
24 78 7
24 80 2
24 81 1
24 84 6
24 91 2
24 93 1
24 98 4
24 99 2
24 100 4
24 107 3
24 110 7
24 118 7
24 123 4
24 127 7
24 128 7
24 129 5
24 134 8
24 136 6
24 137 6
24 149 7
24 151 6
24 154 6
24 160 6
24 164 7
24 165 7
24 167 6
24 170 1
24 182 3
24 193 7
24 195 1
25 26 2
25 28 6
25 29 4
25 32 3
25 34 5
25 36 6
25 39 7
25 42 1
25 44 2
25 45 6
25 47 6
25 49 1
25 50 6
25 51 2
25 53 4
25 61 4
25 62 5
25 65 6
25 67 3
25 68 7
25 69 5
25 73 7
25 74 1
25 75 3
25 76 1
25 78 4
25 79 3
25 82 6
25 90 4
25 91 5
25 92 4
25 93 2
25 95 3
25 97 3
25 99 1
25 102 7
25 103 6
25 106 7
25 113 1
25 114 4
25 115 1
25 116 6
25 117 5
25 122 2
25 124 1
25 125 2
25 130 3
25 138 7
25 139 7
25 142 2
25 144 7
25 146 4
25 152 6
25 156 2
25 157 2
25 161 2
25 177 5
25 178 7
25 183 7
25 190 5
26 27 1
26 32 1
26 33 5
26 34 1
26 36 6
26 37 7
26 38 4
26 39 7
26 41 3
26 43 3
26 48 1
26 50 6
26 56 3
26 57 2
26 58 4
26 60 5
26 65 7
26 66 6
26 71 3
26 72 7
26 73 2
26 74 1
26 77 4
26 78 1
26 82 5
26 85 2
26 95 3
26 99 5
26 102 7
26 104 3
26 107 2
26 110 2
26 111 3
26 118 2
26 122 3
26 132 7
26 138 6
26 155 5
26 171 8
26 175 5
26 186 7
26 187 3
26 189 7
26 196 6
26 197 7
26 198 2
27 29 5
27 31 1
27 33 2
27 34 3
27 35 1
27 37 2
27 38 2
27 39 2
27 41 6
27 43 1
27 48 2
27 55 3
27 56 6
27 57 4
27 58 7
27 60 4
27 66 3
27 71 5
27 72 1
27 77 7
27 81 3
27 83 5
27 84 6
27 85 1
27 93 2
27 94 4
27 95 1
27 99 1
27 102 5
27 107 3
27 110 1
27 111 5
27 118 5
27 119 9
27 129 7
27 132 1
27 133 1
27 148 4
27 150 2
27 151 4
27 155 2
27 170 2
27 180 3
27 198 3
28 29 3
28 32 4
28 35 6
28 36 4
28 37 2
28 39 5
28 42 6
28 43 2
28 44 1
28 45 4
28 46 10
28 47 1
28 49 3
28 50 1
28 51 1
28 52 4
28 53 3
28 58 3
28 59 1
28 61 4
28 62 4
28 65 7
28 66 6
28 67 7
28 68 3
28 69 3
28 70 3
28 73 4
28 74 7
28 75 6
28 78 6
28 79 6
28 82 4
28 86 6
28 87 2
28 88 4
28 89 7
28 90 2
28 97 3
28 99 4
28 112 3
28 113 5
28 114 1
28 115 5
28 116 5
28 117 6
28 130 1
28 131 3
28 136 5
28 138 7
28 139 4
28 142 7
28 144 4
28 145 7
28 156 2
28 157 3
28 161 3
28 162 3
28 172 6
28 177 3
28 178 1
28 179 2
28 183 6
28 191 6
28 194 2
28 199 3
29 32 4
29 36 5
29 37 4
29 42 5
29 44 7
29 47 7
29 49 2
29 50 2
29 52 7
29 53 1
29 58 2
29 61 2
29 62 4
29 67 3
29 68 5
29 69 6
29 74 5
29 75 1
29 76 1
29 79 6
29 82 3
29 90 7
29 93 2
29 97 6
29 99 5
29 114 4
29 117 3
29 131 5
29 136 6
29 139 5
29 140 3
29 145 4
29 146 6
29 156 5
29 157 5
29 161 1
29 169 2
29 171 8
29 173 1
29 174 7
29 177 4
29 192 4
29 193 4
30 32 4
30 39 3
30 40 3
30 43 2
30 45 1
30 47 1
30 53 7
30 54 2
30 59 3
30 61 7
30 62 5
30 65 2
30 75 3
30 79 6
30 90 6
30 93 3
30 97 1
30 103 1
30 109 1
30 112 3
30 114 6
30 115 7
30 116 3
30 117 5
30 122 5
30 125 7
30 130 1
30 138 7
30 140 4
30 142 3
30 145 6
30 171 7
30 173 7
30 178 1
30 185 4
30 188 7
31 35 5
31 37 4
31 40 6
31 50 4
31 51 5
31 58 7
31 67 3
31 77 2
31 80 3
31 81 7
31 84 5
31 88 3
31 100 7
31 101 8
31 123 2
31 127 5
31 128 3
31 129 6
31 134 4
31 137 5
31 149 6
31 151 1
31 154 7
31 160 1
31 164 2
31 165 7
31 167 6
31 174 3
31 182 6
31 193 5
31 195 2
32 34 1
32 35 3
32 36 6
32 39 4
32 42 6
32 44 2
32 45 3
32 47 4
32 49 4
32 51 1
32 52 7
32 53 6
32 54 5
32 58 2
32 59 1
32 61 1
32 63 3
32 65 7
32 67 7
32 68 2
32 69 2
32 70 6
32 73 6
32 74 7
32 75 4
32 76 6
32 79 6
32 82 1
32 86 5
32 87 4
32 90 4
32 93 7
32 97 5
32 99 1
32 109 6
32 115 2
32 117 7
32 122 5
32 124 1
32 125 2
32 131 7
32 139 3
32 140 6
32 145 6
32 146 2
32 157 1
32 161 2
32 162 1
32 177 5
32 178 1
32 188 8
32 190 6
33 34 2
33 38 5
33 39 5
33 41 6
33 43 3
33 48 2
33 55 6
33 56 7
33 57 2
33 60 1
33 71 1
33 72 4
33 83 7
33 85 1
33 93 4
33 94 1
33 95 6
33 102 2
33 107 6
33 110 5
33 111 6
33 118 3
33 119 8
33 132 3
33 150 6
33 170 4
33 175 1
33 180 2
33 189 4
33 197 4
33 198 5
34 37 1
34 38 4
34 39 5
34 41 5
34 42 3
34 43 2
34 48 3
34 50 5
34 55 3
34 56 7
34 57 4
34 58 2
34 60 6
34 66 1
34 71 1
34 72 5
34 74 3
34 78 5
34 83 4
34 85 4
34 93 6
34 94 3
34 102 6
34 107 4
34 110 7
34 111 3
34 113 2
34 118 4
34 132 5
34 150 6
34 155 7
34 170 2
34 171 10
34 175 1
34 180 6
34 189 6
34 197 7
35 37 5
35 39 6
35 40 4
35 47 3
35 50 5
35 51 7
35 58 4
35 77 1
35 78 3
35 80 2
35 81 4
35 84 4
35 88 1
35 91 3
35 96 6
35 98 2
35 100 1
35 127 3
35 128 4
35 129 3
35 133 5
35 134 9
35 137 2
35 151 5
35 160 5
35 164 1
35 165 4
35 193 4
36 42 5
36 45 7
36 47 7
36 49 2
36 50 7
36 51 7
36 52 6
36 53 5
36 58 7
36 59 4
36 61 1
36 63 1
36 67 1
36 68 7
36 69 4
36 70 6
36 74 6
36 75 5
36 76 1
36 77 5
36 79 5
36 82 4
36 87 4
36 90 3
36 91 3
36 93 2
36 97 7
36 99 6
36 108 7
36 112 2
36 113 7
36 117 6
36 125 3
36 130 2
36 131 7
36 139 1
36 140 1
36 142 4
36 145 5
36 157 6
36 161 1
36 162 5
36 169 6
36 172 1
36 173 3
36 177 3
36 178 7
36 183 8
36 191 6
37 39 7
37 40 3
37 50 7
37 51 1
37 56 1
37 58 7
37 68 6
37 77 4
37 80 6
37 81 7
37 84 3
37 88 7
37 91 2
37 96 7
37 99 4
37 100 6
37 101 10
37 107 1
37 118 1
37 123 1
37 127 1
37 128 2
37 129 6
37 133 3
37 134 7
37 137 2
37 141 5
37 149 4
37 151 7
37 154 5
37 160 5
37 164 6
37 165 6
37 167 3
37 182 4
37 193 1
37 195 7
38 39 1
38 41 4
38 43 3
38 48 1
38 55 7
38 56 1
38 57 2
38 60 3
38 66 1
38 71 7
38 72 7
38 83 2
38 85 7
38 93 3
38 94 1
38 95 6
38 102 7
38 104 1
38 107 7
38 110 6
38 119 7
38 132 3
38 148 3
38 150 6
38 155 4
38 175 3
38 180 2
38 187 1
38 197 2
38 198 1
39 41 7
39 42 7
39 43 2
39 47 1
39 48 6
39 50 5
39 53 6
39 55 3
39 56 1
39 57 6
39 58 5
39 60 5
39 61 3
39 65 4
39 66 6
39 69 1
39 71 1
39 72 5
39 73 5
39 74 5
39 77 5
39 83 7
39 85 4
39 86 7
39 90 5
39 91 6
39 99 3
39 104 7
39 107 3
39 110 3
39 111 5
39 118 7
39 119 10
39 132 5
39 138 5
39 148 1
39 150 7
39 155 4
39 170 2
39 171 1
39 180 3
39 187 2
39 189 2
39 197 5
39 198 4
40 46 10
40 50 2
40 51 1
40 58 4
40 77 1
40 78 1
40 80 7
40 81 1
40 84 7
40 88 3
40 91 2
40 96 7
40 98 5
40 100 6
40 121 4
40 127 2
40 129 1
40 133 2
40 134 4
40 136 7
40 137 3
40 141 6
40 147 4
40 151 4
40 160 1
40 164 1
40 173 6
40 182 2
40 193 6
40 196 1
41 43 4
41 48 1
41 55 7
41 56 2
41 57 5
41 58 4
41 60 5
41 66 1
41 71 7
41 72 7
41 83 4
41 85 4
41 93 7
41 94 2
41 95 3
41 102 2
41 107 2
41 110 3
41 111 7
41 118 7
41 132 4
41 148 4
41 150 6
41 155 2
41 163 7
41 170 10
41 175 2
41 180 5
41 186 5
41 189 1
41 197 1
41 198 1
42 44 1
42 45 3
42 47 5
42 49 4
42 51 5
42 52 5
42 53 2
42 54 1
42 59 6
42 61 4
42 63 6
42 65 1
42 68 3
42 69 2
42 70 3
42 74 7
42 75 4
42 76 7
42 79 2
42 82 1
42 86 2
42 90 2
42 97 5
42 117 5
42 122 1
42 124 5
42 125 7
42 140 6
42 146 3
42 161 4
42 173 7
42 188 7
43 55 5
43 56 3
43 57 5
43 60 2
43 61 5
43 66 3
43 71 4
43 72 5
43 83 3
43 85 4
43 93 2
43 94 2
43 95 1
43 102 4
43 104 3
43 107 7
43 110 7
43 111 6
43 132 4
43 148 7
43 150 2
43 163 5
43 168 7
43 171 7
43 175 4
43 186 2
43 198 6
44 47 3
44 49 5
44 52 7
44 53 2
44 59 7
44 61 3
44 63 6
44 64 5
44 65 7
44 67 3
44 68 1
44 69 3
44 70 5
44 74 6
44 75 7
44 76 5
44 79 3
44 82 6
44 86 2
44 87 3
44 89 3
44 92 3
44 99 3
44 105 3
44 115 6
44 116 1
44 124 3
44 131 4
44 136 3
44 139 5
44 140 6
44 142 3
44 145 3
44 146 4
44 152 4
44 156 1
44 157 6
44 161 6
44 162 4
44 166 2
44 169 3
44 177 7
44 178 6
44 183 7
44 188 6
44 190 1
44 192 2
44 194 7
45 49 6
45 53 5
45 54 3
45 61 5
45 65 6
45 68 1
45 69 6
45 70 7
45 73 2
45 86 1
45 87 2
45 89 6
45 92 7
45 97 2
45 105 4
45 106 3
45 114 2
45 122 7
45 126 2
45 138 5
45 139 7
45 142 1
45 143 4
45 152 4
45 153 4
45 158 7
45 162 3
45 166 4
45 177 7
45 181 7
45 187 3
45 191 4
46 50 10
46 51 10
46 62 8
46 67 8
46 78 8
46 84 10
46 88 10
46 90 8
46 91 8
46 93 8
46 96 7
46 103 8
46 113 10
46 114 8
46 120 9
46 121 7
46 130 8
46 134 8
46 135 9
46 141 9
46 145 10
46 147 7
46 156 7
46 172 9
46 173 10
46 184 10
46 196 8
46 200 8
47 51 7
47 61 6
47 67 2
47 70 1
47 74 4
47 75 2
47 76 3
47 78 7
47 79 2
47 82 4
47 87 3
47 90 4
47 95 6
47 97 7
47 99 5
47 113 6
47 117 6
47 124 5
47 130 4
47 131 3
47 141 2
47 144 5
47 145 2
47 146 5
47 156 7
47 157 1
47 161 3
47 169 7
47 177 1
47 190 4
48 55 7
48 56 7
48 57 1
48 60 4
48 72 3
48 83 6
48 85 3
48 93 1
48 94 2
48 95 6
48 102 6
48 104 3
48 107 3
48 111 7
48 119 8
48 132 5
48 148 3
48 150 5
48 171 7
48 175 7
48 198 4
49 53 5
49 59 2
49 61 2
49 62 1
49 63 2
49 64 7
49 68 5
49 69 2
49 70 1
49 73 5
49 86 3
49 87 6
49 89 1
49 92 1
49 95 3
49 97 1
49 105 4
49 106 6
49 109 2
49 116 1
49 124 7
49 126 6
49 139 4
49 142 5
49 152 1
49 153 2
49 158 5
49 162 5
49 166 7
49 176 3
49 177 2
49 181 10
49 187 1
49 188 6
49 190 6
50 51 3
50 58 5
50 68 1
50 77 3
50 78 6
50 82 7
50 84 7
50 88 4
50 91 2
50 113 5
50 120 2
50 121 3
50 135 4
50 136 4
50 141 6
50 147 5
50 169 7
50 173 7
50 184 5
50 196 1
51 55 3
51 61 5
51 62 5
51 66 2
51 67 2
51 78 4
51 84 5
51 87 4
51 88 5
51 90 1
51 91 1
51 93 7
51 96 5
51 103 6
51 113 7
51 114 5
51 121 7
51 129 1
51 130 3
51 134 2
51 135 6
51 141 5
51 145 7
51 147 3
51 156 2
51 157 4
51 160 2
51 164 6
51 173 5
51 184 7
51 196 3
52 53 5
52 61 7
52 64 3
52 68 3
52 69 6
52 74 3
52 75 2
52 76 7
52 79 3
52 82 2
52 97 7
52 99 7
52 131 7
52 136 3
52 159 4
52 169 3
52 172 7
52 192 7
53 54 7
53 59 2
53 61 4
53 63 6
53 65 2
53 68 5
53 69 3
53 74 1
53 75 1
53 76 2
53 79 2
53 86 1
53 90 1
53 97 1
53 108 6
53 109 4
53 117 1
53 122 5
53 131 4
53 140 5
53 146 1
53 161 3
53 188 9
53 190 6
54 59 6
54 61 2
54 64 3
54 68 7
54 69 6
54 73 7
54 86 1
54 87 4
54 89 3
54 92 7
54 105 3
54 106 4
54 109 7
54 114 2
54 124 1
54 126 3
54 152 2
54 153 5
54 158 6
54 166 1
54 176 1
54 181 10
54 187 2
54 188 5
54 190 6
55 56 6
55 57 5
55 58 1
55 60 4
55 66 2
55 71 2
55 72 5
55 83 1
55 85 3
55 93 1
55 94 1
55 102 3
55 104 7
55 107 3
55 110 2
55 111 6
55 118 6
55 132 6
55 148 4
55 155 5
55 163 2
55 170 10
55 175 5
55 180 1
55 186 2
55 189 2
55 197 5
55 198 6
56 57 4
56 58 5
56 60 6
56 66 5
56 71 1
56 72 3
56 83 4
56 85 7
56 94 2
56 95 5
56 102 6
56 107 4
56 110 4
56 111 3
56 119 8
56 132 4
56 150 6
56 171 3
56 175 1
56 180 3
56 189 4
56 197 6
57 60 6
57 71 4
57 72 1
57 83 3
57 85 1
57 93 3
57 94 7
57 95 7
57 102 1
57 107 2
57 110 2
57 111 4
57 118 1
57 119 7
57 132 7
57 150 1
57 155 6
57 170 6
57 180 2
57 189 4
57 198 2
58 68 2
58 71 5
58 77 7
58 78 5
58 81 2
58 83 3
58 84 3
58 91 6
58 93 1
58 107 7
58 110 7
58 118 7
58 134 10
58 136 2
58 137 7
58 155 2
58 160 5
58 164 2
58 165 1
58 167 5
58 170 4
58 193 1
58 195 2
59 61 1
59 63 7
59 64 5
59 68 6
59 69 2
59 70 7
59 73 1
59 86 1
59 87 6
59 89 2
59 92 2
59 97 1
59 105 4
59 106 7
59 108 4
59 109 3
59 112 3
59 124 5
59 126 7
59 138 7
59 139 7
59 142 1
59 152 4
59 158 4
59 162 7
59 166 1
59 176 4
59 181 10
59 187 4
59 191 5
60 72 1
60 83 5
60 85 3
60 93 6
60 94 6
60 102 7
60 107 6
60 110 4
60 111 6
60 119 7
60 132 4
60 150 3
60 171 1
60 175 7
60 180 3
60 189 3
60 197 1
61 62 3
61 63 5
61 68 5
61 70 5
61 74 5
61 76 6
61 79 7
61 82 6
61 87 1
61 99 4
61 108 3
61 112 3
61 117 2
61 122 1
61 125 4
61 140 1
61 146 4
61 161 3
61 162 3
61 169 1
61 171 10
61 177 2
61 178 5
61 183 4
61 190 6
61 191 5
61 194 4
62 64 3
62 65 1
62 67 5
62 70 5
62 74 6
62 75 1
62 78 1
62 90 3
62 95 5
62 105 6
62 114 2
62 115 7
62 116 4
62 124 6
62 125 7
62 130 6
62 138 7
62 142 1
62 144 4
62 156 4
63 64 3
63 65 1
63 68 4
63 69 6
63 70 4
63 73 7
63 86 5
63 87 3
63 89 3
63 92 2
63 97 5
63 105 7
63 106 1
63 108 5
63 109 7
63 112 5
63 126 7
63 138 6
63 139 7
63 142 6
63 152 5
63 158 7
63 162 7
63 181 7
63 187 3
63 188 7
63 191 5
64 74 6
64 76 5
64 79 5
64 92 4
64 97 4
64 105 1
64 106 2
64 108 7
64 112 7
64 125 3
64 126 3
64 138 3
64 142 6
64 143 4
64 153 4
64 158 2
64 166 7
64 172 1
64 176 7
64 177 5
64 178 2
64 179 5
64 181 8
64 183 6
64 185 2
64 190 4
64 194 7
64 199 4
65 66 1
65 68 3
65 69 6
65 70 4
65 74 2
65 75 3
65 79 5
65 82 1
65 86 1
65 87 4
65 89 7
65 90 2
65 92 5
65 96 8
65 97 7
65 106 3
65 115 3
65 116 7
65 122 3
65 124 5
65 130 2
65 138 3
65 146 6
65 162 7
65 163 6
65 168 3
65 186 4
66 71 1
66 93 2
66 96 2
66 99 7
66 104 7
66 138 6
66 148 7
66 163 3
66 168 3
66 186 3
67 74 5
67 78 2
67 79 1
67 88 2
67 90 4
67 91 1
67 96 4
67 97 2
67 99 7
67 103 3
67 113 4
67 114 2
67 117 6
67 120 2
67 121 2
67 130 3
67 131 7
67 135 3
67 141 1
67 144 4
67 145 7
67 147 1
67 156 6
67 157 1
67 172 2
67 184 1
68 69 7
68 74 1
68 75 7
68 76 3
68 79 3
68 82 2
68 90 2
68 122 4
68 140 5
68 146 5
68 157 2
68 160 5
68 190 4
68 192 10
69 70 4
69 73 3
69 74 1
69 75 1
69 76 5
69 79 4
69 82 2
69 87 3
69 89 6
69 108 3
69 112 6
69 117 2
69 122 2
69 125 7
69 131 1
69 140 1
69 146 7
69 162 1
69 173 1
69 178 2
69 183 7
69 191 3
70 75 5
70 79 1
70 86 3
70 97 2
70 99 5
70 108 5
70 109 3
70 112 6
70 114 1
70 116 6
70 122 5
70 124 3
70 125 4
70 130 2
70 140 6
70 142 2
70 159 5
70 161 6
70 173 6
70 177 7
70 178 5
70 179 4
70 183 9
70 191 1
70 194 6
71 72 3
71 83 2
71 85 6
71 93 7
71 95 5
71 104 1
71 107 4
71 118 1
71 148 9
71 180 4
71 198 5
72 83 7
72 85 7
72 93 2
72 94 7
72 102 1
72 107 1
72 110 7
72 111 4
72 132 4
72 150 4
72 163 6
72 171 8
72 175 7
72 189 5
72 197 3
72 198 2
73 75 2
73 85 4
73 86 5
73 87 7
73 90 1
73 108 4
73 112 5
73 117 5
73 122 3
73 131 3
73 139 1
73 140 6
73 143 3
73 152 7
73 169 3
73 171 5
73 172 7
73 173 6
73 178 4
73 187 1
74 75 7
74 76 5
74 79 1
74 82 2
74 89 5
74 90 4
74 99 4
74 105 3
74 106 6
74 131 7
74 145 4
74 153 5
74 156 7
74 157 7
74 161 6
74 169 4
74 176 4
74 177 4
74 188 5
74 190 1
74 193 8
75 76 5
75 86 2
75 89 3
75 90 7
75 92 4
75 95 2
75 97 5
75 99 5
75 106 5
75 114 7
75 115 2
75 126 1
75 130 6
75 152 3
75 162 5
75 166 7
75 187 7
75 188 6
76 82 3
76 89 5
76 92 1
76 99 4
76 105 2
76 106 1
76 113 2
76 126 1
76 136 2
76 140 5
76 146 4
76 153 6
76 156 3
76 158 3
76 161 2
76 172 4
76 181 7
76 188 4
77 80 3
77 81 3
77 84 2
77 98 4
77 100 4
77 107 4
77 110 1
77 118 1
77 123 3
77 127 2
77 128 4
77 134 10
77 137 2
77 149 6
77 151 2
77 154 6
77 160 5
77 164 4
77 165 3
77 167 4
77 182 7
77 193 3
77 195 5
78 81 5
78 82 1
78 84 7
78 88 5
78 90 3
78 91 3
78 96 2
78 113 4
78 121 3
78 129 7
78 131 5
78 134 5
78 135 3
78 141 7
78 145 6
78 147 5
78 156 6
78 173 1
78 184 6
78 196 4
79 82 3
79 86 5
79 87 5
79 89 5
79 97 5
79 99 3
79 105 3
79 109 2
79 113 2
79 117 6
79 125 4
79 131 1
79 145 6
79 153 1
79 156 6
79 157 6
79 158 1
79 161 4
79 177 6
79 178 7
79 181 9
79 183 5
79 194 3
80 98 5
80 100 2
80 101 10
80 123 1
80 127 7
80 128 7
80 137 5
80 149 1
80 154 1
80 165 7
80 167 5
80 174 3
80 182 2
80 195 2
80 196 2
81 84 5
81 96 5
81 98 7
81 107 5
81 118 7
81 129 7
81 134 9
81 151 5
81 164 5
81 170 3
82 90 6
82 99 7
82 113 5
82 131 1
82 135 10
82 136 4
82 144 6
82 156 2
82 157 6
82 159 3
82 161 3
82 169 7
82 173 6
82 177 4
82 178 5
82 190 7
83 85 2
83 94 7
83 102 6
83 107 4
83 110 3
83 111 1
83 119 7
83 132 6
83 150 6
83 175 6
83 180 2
83 189 4
83 197 6
84 88 3
84 107 4
84 118 3
84 127 2
84 129 7
84 134 1
84 141 7
84 151 2
84 160 5
84 164 3
84 170 6
84 184 5
85 93 2
85 94 1
85 95 1
85 102 3
85 107 2
85 118 1
85 132 6
85 148 8
85 150 2
85 152 6
85 155 3
85 180 5
86 89 4
86 90 4
86 92 4
86 97 6
86 105 2
86 108 7
86 109 2
86 112 3
86 115 4
86 116 1
86 117 7
86 122 2
86 124 3
86 126 6
86 146 2
86 153 1
86 158 7
86 172 6
86 176 5
86 181 10
86 185 6
86 190 6
87 97 2
87 108 2
87 112 2
87 117 4
87 122 1
87 125 6
87 131 7
87 139 6
87 140 3
87 146 5
87 159 3
87 161 7
87 178 4
87 179 7
87 183 8
87 190 5
87 194 5
88 90 3
88 91 3
88 93 5
88 113 6
88 120 5
88 121 7
88 134 7
88 135 1
88 141 3
88 145 1
88 147 6
88 156 2
88 172 5
88 184 4
88 196 6
89 90 4
89 97 1
89 99 2
89 108 2
89 109 4
89 112 5
89 117 7
89 122 7
89 125 7
89 131 3
89 143 4
89 161 6
89 172 10
89 177 7
89 187 1
89 199 3
90 92 2
90 93 4
90 95 1
90 99 1
90 106 5
90 113 6
90 114 4
90 116 4
90 126 1
90 130 3
90 136 5
90 138 1
90 142 6
90 146 4
90 152 5
90 156 3
90 162 6
90 166 2
90 173 4
90 183 6
90 187 1
91 96 3
91 99 5
91 103 3
91 113 2
91 120 2
91 121 2
91 135 4
91 141 7
91 147 3
91 173 5
91 184 2
91 196 6
92 97 5
92 108 5
92 109 1
92 112 5
92 115 3
92 117 2
92 122 6
92 131 5
92 140 4
92 142 4
92 143 2
92 152 1
92 166 5
92 172 10
92 178 3
92 185 1
92 187 2
92 190 4
93 104 4
93 107 3
93 110 1
93 111 1
93 119 4
93 120 7
93 121 1
93 132 5
93 148 1
93 171 2
93 180 2
93 189 3
94 102 1
94 107 2
94 111 1
94 119 8
94 132 7
94 150 1
94 175 2
94 180 4
94 189 6
94 197 6
95 111 4
95 113 2
95 114 5
95 118 7
95 155 5
95 171 10
95 175 6
95 197 1
96 99 3
96 103 1
96 120 1
96 144 10
97 99 2
97 106 1
97 109 6
97 112 3
97 115 3
97 125 5
97 126 6
97 131 1
97 140 4
97 146 7
97 153 5
97 159 8
97 178 3
97 179 2
97 187 2
97 188 7
98 100 4
98 101 10
98 123 6
98 127 6
98 128 2
98 137 4
98 149 5
98 154 5
98 164 4
98 165 2
98 167 3
98 174 5
98 182 1
98 195 6
99 102 5
99 113 1
99 116 3
99 120 6
99 131 2
99 136 8
99 157 7
99 169 6
99 177 3
100 101 10
100 123 4
100 127 2
100 128 4
100 137 8
100 149 5
100 154 1
100 165 8
100 182 3
100 193 8
101 123 8
101 127 7
101 128 10
101 133 9
101 149 7
101 154 9
101 174 10
101 182 9
101 195 7
102 107 4
102 110 2
102 111 4
102 119 10
102 132 7
102 150 3
102 171 7
102 175 3
102 180 4
102 189 3
102 197 2
102 198 7
103 120 2
103 135 2
103 147 7
104 148 2
104 171 10
104 186 7
104 198 5
105 108 3
105 109 3
105 112 4
105 116 4
105 122 7
105 124 2
105 131 2
105 138 7
105 142 4
105 143 5
105 153 3
105 161 2
105 177 5
105 179 3
105 185 3
105 190 6
105 194 6
105 199 7
106 108 7
106 109 5
106 112 2
106 115 5
106 117 6
106 122 4
106 138 4
106 143 3
106 153 2
106 178 4
106 185 10
106 190 1
107 110 1
107 118 3
107 119 10
107 132 2
107 133 4
107 150 6
107 155 7
107 160 6
107 170 1
107 180 4
107 189 2
108 112 6
108 124 3
108 126 7
108 139 7
108 142 7
108 152 6
108 158 2
108 162 1
108 166 1
108 181 9
108 187 1
108 191 2
109 112 7
109 117 5
109 126 7
109 138 6
109 142 1
109 143 6
109 153 7
109 158 3
109 166 2
109 172 2
109 176 5
109 179 7
109 181 9
109 183 3
109 190 6
109 194 4
109 199 4
110 119 10
110 132 4
110 150 3
110 160 5
110 170 7
110 180 3
110 189 1
111 119 10
111 132 5
111 150 2
111 175 6
112 124 6
112 126 7
112 139 4
112 142 7
112 152 6
112 158 4
112 162 6
112 166 3
112 181 10
112 187 5
112 191 6
113 114 5
113 120 7
113 121 5
113 130 2
113 131 1
113 135 4
113 141 1
113 144 6
113 145 5
113 147 2
113 156 2
113 157 1
113 172 1
113 184 3
114 115 2
114 116 5
114 130 1
114 142 2
114 144 2
114 145 1
114 156 2
115 116 1
115 117 2
115 130 6
115 138 4
115 146 1
115 157 2
115 183 10
115 185 6
116 117 2
116 125 3
116 130 4
116 138 5
116 142 4
116 146 4
116 153 3
116 179 5
116 181 7
117 124 5
117 126 6
117 130 6
117 131 5
117 142 5
117 143 1
117 144 5
117 152 5
117 153 5
117 162 4
117 166 5
117 183 7
117 190 5
117 194 1
117 199 1
118 155 6
118 170 9
118 189 1
119 150 8
119 175 7
119 180 9
119 189 8
119 197 10
120 121 7
120 141 3
120 156 6
121 125 7
121 130 4
121 135 6
121 141 6
121 145 7
121 147 6
121 156 3
121 172 1
121 173 5
121 184 2
121 196 4
122 126 6
122 138 2
122 139 5
122 152 7
122 153 2
122 158 4
122 162 5
122 166 4
122 176 2
122 181 7
122 187 6
123 127 6
123 128 5
123 137 6
123 149 4
123 154 1
123 165 7
123 167 5
123 174 1
123 182 5
123 195 6
124 131 7
124 138 6
124 142 1
124 143 7
124 157 1
124 158 5
124 172 4
124 176 4
124 178 4
124 179 4
124 181 8
124 183 1
124 190 2
124 194 2
124 199 6
125 135 9
125 139 2
125 140 5
125 145 6
125 156 4
125 173 2
125 177 6
125 191 7
126 140 6
126 142 2
126 143 4
126 146 6
126 172 7
126 185 3
126 187 5
126 190 3
127 128 1
127 134 1
127 137 5
127 149 3
127 154 3
127 165 6
127 167 5
127 182 5
127 195 3
128 137 1
128 149 5
128 154 7
128 165 3
128 167 5
128 174 2
128 182 5
128 193 7
128 195 1
129 134 8
129 151 10
129 164 5
130 144 7
130 145 1
130 146 3
130 156 5
130 161 6
131 141 5
131 143 5
131 145 5
131 156 3
131 157 7
131 161 4
131 162 6
131 169 5
131 177 2
131 181 8
131 191 1
132 150 4
132 171 10
132 175 5
132 180 7
132 189 7
132 197 2
133 160 4
133 170 8
134 164 9
135 136 10
135 141 7
135 145 2
135 147 6
135 156 4
135 173 4
135 184 3
135 196 5
136 173 4
136 192 8
137 149 7
137 154 1
137 167 5
137 174 3
137 182 5
137 195 5
138 142 4
138 158 5
138 162 1
138 163 5
138 176 6
138 181 7
138 185 4
138 186 7
139 140 4
139 152 2
139 159 7
139 178 6
139 183 8
139 191 2
139 194 1
140 152 2
140 162 2
140 166 10
140 187 6
140 188 6
140 191 5
141 145 6
141 147 4
141 156 7
141 173 1
141 184 7
141 196 5
142 158 1
142 176 5
142 177 6
142 179 2
142 181 7
142 185 6
142 194 6
142 199 4
143 152 5
143 153 7
143 158 7
143 161 10
143 176 4
143 185 3
143 199 7
144 145 3
145 156 6
145 157 2
145 159 7
145 173 1
145 184 5
145 186 6
146 157 3
146 166 1
146 178 3
146 183 9
146 194 4
147 156 5
147 184 2
147 196 5
148 163 9
148 171 10
148 186 2
148 198 1
149 167 7
149 174 6
149 182 2
149 195 3
150 171 10
150 175 1
150 180 3
150 189 2
150 197 6
152 172 8
152 188 8
152 190 3
153 158 7
153 161 5
153 176 1
153 181 8
153 185 3
153 190 3
153 199 4
154 165 7
154 167 5
154 174 5
154 182 7
154 195 2
155 170 8
155 189 3
156 157 2
156 169 5
156 173 5
156 184 2
157 161 3
157 177 3
157 194 8
158 177 5
158 179 3
158 185 4
158 194 3
158 199 10
159 169 3
159 192 9
160 164 5
160 165 5
160 167 2
160 170 10
160 193 3
160 195 4
162 178 3
162 183 7
163 168 9
164 193 7
165 167 7
165 182 7
165 195 4
166 172 8
166 181 8
166 190 5
167 182 5
167 195 5
169 173 2
169 192 7
170 180 2
170 189 10
171 186 8
172 187 7
173 174 2
173 196 7
175 197 4
176 177 10
176 179 1
176 185 4
176 190 4
176 194 1
176 199 7
178 179 4
178 183 10
179 181 8
179 185 4
179 190 4
179 194 7
179 199 2
180 189 2
181 185 8
181 194 9
181 199 10
182 195 1
183 191 10
183 194 8
184 196 2
185 190 7
185 194 5
185 199 7
186 198 10
188 190 6
190 199 10
194 199 6
