200 257 550
5
6
3
1
3
4
1
1
3
9
7
5
3
3
10
2
3
7
2
8
5
4
6
7
6
4
6
1
2
1
8
1
6
3
1
3
5
5
2
2
5
1
2
4
4
1
7
10
6
2
6
7
3
2
5
5
1
7
8
1
8
6
10
6
6
7
6
2
10
8
7
4
2
4
8
5
6
7
3
7
7
7
1
9
5
1
2
10
5
4
4
4
6
5
3
10
6
7
7
10
3
7
8
6
2
6
5
4
4
9
10
5
8
7
5
4
6
8
4
7
1
5
3
2
7
5
6
7
7
5
8
7
6
9
6
7
6
7
5
2
8
9
6
10
2
4
9
1
6
2
1
5
9
4
7
3
2
10
4
8
3
1
6
6
4
5
5
10
4
8
10
8
8
8
10
1
4
1
6
1
2
4
5
2
6
1
4
4
10
2
2
3
3
6
10
4
3
3
1
6
1 2 9
1 136 9
1 137 8
2 3 7
2 4 8
2 6 2
2 138 10
3 139 10
3 142 7
4 5 10
4 8 9
4 11 9
4 143 9
5 8 2
5 9 9
5 144 10
6 7 7
6 10 8
6 12 7
7 172 9
7 173 8
7 174 10
8 17 6
8 138 6
8 175 5
9 176 8
9 178 10
10 12 7
10 19 8
12 13 6
12 180 10
13 14 7
13 15 9
13 19 9
13 27 10
14 15 5
14 16 9
14 28 7
14 34 3
14 181 4
14 182 2
16 19 10
16 62 8
16 63 10
17 18 9
17 175 6
18 172 7
18 175 8
18 176 9
19 20 10
20 21 8
20 22 9
21 22 6
21 26 7
21 27 5
21 63 2
21 64 7
22 23 8
23 24 9
23 65 9
24 25 7
25 66 8
27 28 7
28 29 8
29 30 7
30 31 8
30 32 8
30 69 10
32 33 10
32 70 9
32 71 9
33 72 8
34 35 2
34 181 8
35 36 9
35 73 10
35 78 9
36 37 10
36 52 10
36 96 10
37 38 10
37 39 7
37 53 7
37 56 8
38 53 3
38 97 7
39 40 9
39 45 7
39 56 7
40 41 10
40 42 7
40 46 8
40 98 8
40 99 8
41 43 9
41 47 10
41 48 10
42 44 5
42 49 3
42 98 4
42 99 1
43 44 4
43 47 4
43 50 7
43 100 1
44 51 8
44 100 10
46 101 7
47 98 1
47 100 7
49 57 10
49 98 3
49 99 9
49 103 10
50 58 7
50 104 9
52 105 9
53 54 10
54 55 9
55 59 8
57 107 8
58 60 9
58 99 8
60 61 9
60 108 1
66 67 10
67 68 7
67 109 7
68 110 8
73 74 7
73 111 8
74 75 7
74 76 10
74 112 9
74 181 8
75 76 9
76 77 9
77 113 7
77 174 8
78 79 7
79 80 7
79 81 8
79 91 9
80 81 4
80 114 8
81 82 10
82 83 9
82 84 2
82 87 6
82 92 7
83 84 6
83 85 8
83 112 7
83 114 1
83 115 10
84 89 8
85 86 7
85 115 4
85 182 9
86 90 10
86 93 9
86 119 8
86 120 7
86 121 7
87 88 7
87 89 8
87 94 3
87 128 8
89 95 9
89 130 8
91 94 9
91 96 4
91 131 7
93 119 3
93 132 8
94 95 10
94 114 6
95 133 8
101 102 8
104 108 7
105 106 8
115 116 8
116 117 10
116 120 9
117 118 9
121 122 9
122 123 9
122 125 7
123 124 7
123 134 4
124 126 10
125 134 7
126 127 8
126 135 8
127 135 2
128 129 9
139 140 9
140 141 9
144 145 9
145 146 10
145 148 8
146 147 7
146 149 9
146 150 10
146 180 1
147 152 10
148 153 10
148 156 10
149 154 9
150 151 1
150 152 1
151 159 9
151 161 9
151 162 4
151 163 5
151 164 7
151 165 5
152 155 9
155 164 9
155 165 8
156 157 8
156 158 9
157 158 3
157 166 10
159 160 7
161 167 8
162 168 7
162 169 8
163 169 2
163 170 9
164 170 10
165 170 1
167 171 9
168 169 10
169 170 10
176 177 10
178 179 7
182 183 9
183 184 10
184 185 8
184 187 10
185 186 7
185 196 10
186 188 9
186 189 8
187 190 8
188 189 1
190 191 10
191 192 9
191 197 10
192 193 9
192 194 7
193 194 3
193 195 10
197 198 8
198 199 10
199 200 7
