200 1905 366.667
1
1
7
2
2
7
5
6
8
10
5
1
4
4
10
9
6
10
4
8
7
8
10
7
7
8
6
8
9
6
8
8
4
10
9
7
4
10
6
1
9
6
7
8
7
6
8
9
6
10
10
6
7
6
8
6
9
10
6
6
8
7
10
4
10
8
6
6
7
6
8
8
6
7
10
7
4
5
7
6
9
7
7
6
9
6
8
4
10
7
8
10
9
4
7
10
8
6
9
8
7
10
6
7
8
4
7
9
6
6
7
10
9
7
8
7
8
5
7
5
7
5
9
8
10
10
10
6
8
5
9
8
9
6
9
6
8
5
6
7
9
9
8
9
10
8
10
7
4
9
8
5
7
4
6
8
10
4
6
4
9
5
5
6
8
5
6
9
9
8
10
4
9
4
9
8
7
6
8
7
5
7
4
7
9
5
7
4
10
9
6
7
1
10
9
7
6
5
5
7
1 2 7
1 3 3
1 4 5
1 5 7
1 6 3
1 7 2
1 8 6
1 9 3
1 10 2
1 11 7
1 12 3
1 13 2
1 15 6
1 16 7
1 17 4
1 18 4
1 22 3
1 25 4
1 26 3
1 27 3
1 28 4
1 29 4
1 30 1
1 33 4
1 35 1
1 36 4
1 37 2
1 40 6
1 47 5
1 48 7
1 49 5
1 50 5
1 51 5
1 53 6
1 57 5
1 59 10
1 68 5
1 69 7
1 73 2
1 75 6
1 89 7
1 90 1
1 100 7
1 113 6
1 114 1
1 115 4
1 125 4
1 140 1
1 155 5
1 156 7
1 169 5
1 170 2
1 171 5
1 197 5
1 198 3
1 199 4
2 3 4
2 4 7
2 5 7
2 6 6
2 7 2
2 8 6
2 9 3
2 10 7
2 11 3
2 12 5
2 13 3
2 14 7
2 15 4
2 16 1
2 17 1
2 18 7
2 19 7
2 20 7
2 21 2
2 22 6
2 23 5
2 24 6
2 25 7
2 26 4
2 27 2
2 28 6
2 29 7
2 30 6
2 31 3
2 32 5
2 33 3
2 34 6
2 35 5
2 36 2
2 37 7
2 38 2
2 39 3
2 40 5
2 41 2
2 42 8
2 43 1
2 44 6
2 45 4
2 46 7
2 48 2
2 49 5
2 50 7
2 51 2
2 52 3
2 53 4
2 54 5
2 55 4
2 56 1
2 57 1
2 58 7
2 59 4
2 60 2
2 61 7
2 62 3
2 63 7
2 64 5
2 65 5
2 66 7
2 67 7
2 70 1
2 71 6
2 72 7
2 73 3
2 74 6
2 75 6
2 76 5
2 77 3
2 79 6
2 80 3
2 81 1
2 83 1
2 84 4
2 86 3
2 87 2
2 88 1
2 91 1
2 92 3
2 93 3
2 94 2
2 101 4
2 102 1
2 103 1
2 104 5
2 105 4
2 106 4
2 107 6
2 108 4
2 116 1
2 117 4
2 118 3
2 119 7
2 120 4
2 126 3
2 127 6
2 128 2
2 129 5
2 130 2
2 131 1
2 132 2
2 133 2
2 141 4
2 142 5
2 143 6
2 144 1
2 145 7
2 146 2
2 147 5
2 157 1
2 158 7
2 159 3
2 160 5
2 172 6
2 173 5
2 174 1
2 175 2
2 176 6
2 177 6
2 178 2
2 179 1
2 180 5
2 181 2
2 182 7
2 183 4
2 200 6
3 4 6
3 5 7
3 6 3
3 7 1
3 8 3
3 9 2
3 10 3
3 11 3
3 12 3
3 13 7
3 14 1
3 15 5
3 16 6
3 17 6
3 18 7
3 19 1
3 20 4
3 21 2
3 22 1
3 23 5
3 24 1
3 25 6
3 26 3
3 27 5
3 28 2
3 29 2
3 30 2
3 31 3
3 32 3
3 33 7
3 34 7
3 35 3
3 36 3
3 37 2
3 38 3
3 39 3
3 41 4
3 42 10
3 43 4
3 44 3
3 45 3
3 46 5
3 47 1
3 48 5
3 49 7
3 50 3
3 51 7
3 52 2
3 53 4
3 55 1
3 56 6
3 57 5
3 60 4
3 61 1
3 62 4
3 63 2
3 65 2
3 66 7
3 67 4
3 68 2
3 69 4
3 70 1
3 71 1
3 72 3
3 73 4
3 74 2
3 77 1
3 78 1
3 80 2
3 81 5
3 84 6
3 86 2
3 94 7
3 95 5
3 96 2
3 97 5
3 104 1
3 106 5
3 109 7
3 110 2
3 119 3
3 120 3
3 131 5
3 133 2
3 134 6
3 135 2
3 136 3
3 137 2
3 148 6
3 149 2
3 150 4
3 157 4
3 161 2
3 162 4
3 182 7
3 184 7
3 185 5
4 5 4
4 6 7
4 7 3
4 8 3
4 9 1
4 10 6
4 11 3
4 12 3
4 13 5
4 14 5
4 15 2
4 16 7
4 17 4
4 18 3
4 19 3
4 20 5
4 21 3
4 22 2
4 23 6
4 24 4
4 25 4
4 26 2
4 27 6
4 28 5
4 29 1
4 30 5
4 31 2
4 32 3
4 33 1
4 34 7
4 35 3
4 36 4
4 37 2
4 38 3
4 39 7
4 41 7
4 42 8
4 43 6
4 44 7
4 45 6
4 46 7
4 47 3
4 49 5
4 51 7
4 52 1
4 53 7
4 54 6
4 55 2
4 56 1
4 58 6
4 60 2
4 61 5
4 62 7
4 63 7
4 64 3
4 65 4
4 66 5
4 67 4
4 70 4
4 71 5
4 72 1
4 74 6
4 76 3
4 77 7
4 79 2
4 80 2
4 88 7
4 92 6
4 93 2
4 94 5
4 95 2
4 96 6
4 97 6
4 107 1
4 108 7
4 109 5
4 110 6
4 111 4
4 120 6
4 121 6
4 130 1
4 136 6
4 137 2
4 138 5
4 158 1
4 163 2
4 164 7
4 165 4
4 178 1
4 184 1
4 186 5
4 187 5
5 6 2
5 7 7
5 8 5
5 9 1
5 10 2
5 11 1
5 12 4
5 13 3
5 14 6
5 15 2
5 16 3
5 18 5
5 19 7
5 20 3
5 21 6
5 22 5
5 23 4
5 24 6
5 25 2
5 26 5
5 27 1
5 28 2
5 29 3
5 30 2
5 31 1
5 32 4
5 34 3
5 35 2
5 36 2
5 37 7
5 38 7
5 39 7
5 41 6
5 42 10
5 43 6
5 44 5
5 46 5
5 47 2
5 50 6
5 52 2
5 54 5
5 55 1
5 58 7
5 60 7
5 61 5
5 62 2
5 63 6
5 64 3
5 65 5
5 66 7
5 67 5
5 70 7
5 76 2
5 77 3
5 79 6
5 83 4
5 86 4
5 91 3
5 92 6
5 93 6
5 94 2
5 102 1
5 103 6
5 104 7
5 107 1
5 117 4
5 126 1
5 127 1
5 128 5
5 129 7
5 130 1
5 147 4
5 151 1
5 158 5
5 159 6
5 160 6
5 176 3
5 178 2
5 183 6
5 186 1
5 188 3
6 7 4
6 8 5
6 9 6
6 10 7
6 11 1
6 12 4
6 13 1
6 14 6
6 15 6
6 16 7
6 17 3
6 18 6
6 19 5
6 20 5
6 21 5
6 22 3
6 23 4
6 24 7
6 25 5
6 26 6
6 27 2
6 28 2
6 29 4
6 30 2
6 31 4
6 32 1
6 34 1
6 35 3
6 36 1
6 37 1
6 38 3
6 39 6
6 41 2
6 42 7
6 43 6
6 44 3
6 45 7
6 46 3
6 47 6
6 48 6
6 49 2
6 51 4
6 52 3
6 53 2
6 55 7
6 56 2
6 58 5
6 61 5
6 62 2
6 63 2
6 65 2
6 70 7
6 74 3
6 77 6
6 80 5
6 81 3
6 84 4
6 86 2
6 87 6
6 93 6
6 94 7
6 95 7
6 102 4
6 104 1
6 105 2
6 116 4
6 117 3
6 119 2
6 144 2
6 145 1
6 146 4
6 147 6
6 148 2
6 160 6
6 177 7
6 179 2
6 180 9
6 181 1
7 8 5
7 9 3
7 10 2
7 11 2
7 12 2
7 13 1
7 14 6
7 15 2
7 16 6
7 18 1
7 19 7
7 20 6
7 21 6
7 22 4
7 23 6
7 24 3
7 25 5
7 26 6
7 27 2
7 28 7
7 29 3
7 30 1
7 31 1
7 32 3
7 34 3
7 35 7
7 36 5
7 37 4
7 38 4
7 39 5
7 41 5
7 42 8
7 43 6
7 44 7
7 46 1
7 54 5
7 55 4
7 56 6
7 58 2
7 60 5
7 61 5
7 62 2
7 63 6
7 64 4
7 65 7
7 66 7
7 67 5
7 70 1
7 71 4
7 76 7
7 79 7
7 83 5
7 88 5
7 94 3
7 95 1
7 96 3
7 97 4
7 107 2
7 108 4
7 118 6
7 120 2
7 121 6
7 130 4
7 132 5
7 138 4
7 163 6
7 164 6
7 165 6
7 183 6
7 186 3
7 187 4
7 188 1
8 9 4
8 10 7
8 11 3
8 12 7
8 13 2
8 14 5
8 15 4
8 16 4
8 17 4
8 18 5
8 19 2
8 20 6
8 21 5
8 22 1
8 23 1
8 25 1
8 26 4
8 27 5
8 28 6
8 29 7
8 30 7
8 32 5
8 33 2
8 34 4
8 35 1
8 36 2
8 37 4
8 39 1
8 44 1
8 45 3
8 47 5
8 48 3
8 49 5
8 50 2
8 51 5
8 52 4
8 53 1
8 57 1
8 59 10
8 62 3
8 67 3
8 68 7
8 69 5
8 72 4
8 73 6
8 74 6
8 75 7
8 77 5
8 78 4
8 80 3
8 81 3
8 84 4
8 86 7
8 87 2
8 98 5
8 99 2
8 100 1
8 102 4
8 104 1
8 105 2
8 106 2
8 112 7
8 116 1
8 119 1
8 131 2
8 134 6
8 135 5
8 144 6
8 145 6
8 146 3
8 148 7
8 157 7
8 166 5
8 172 4
8 182 1
8 184 2
9 10 6
9 11 6
9 12 6
9 13 1
9 14 7
9 15 7
9 16 3
9 17 7
9 18 5
9 19 7
9 20 1
9 21 5
9 22 4
9 23 1
9 25 4
9 26 5
9 27 2
9 28 1
9 29 1
9 30 3
9 31 3
9 32 3
9 33 5
9 34 3
9 35 1
9 36 6
9 37 1
9 38 4
9 39 4
9 40 3
9 41 6
9 42 8
9 43 7
9 44 5
9 45 3
9 47 1
9 48 7
9 49 1
9 50 5
9 51 2
9 52 7
9 53 4
9 54 7
9 57 5
9 59 1
9 65 2
9 77 4
9 84 6
9 87 4
9 98 6
9 99 5
9 101 3
9 102 4
9 103 3
9 104 7
9 106 7
9 112 1
9 116 7
9 122 2
9 129 2
9 143 4
9 159 6
9 166 1
9 172 2
10 11 4
10 12 6
10 13 7
10 14 1
10 15 6
10 16 7
10 17 5
10 18 3
10 19 3
10 20 1
10 21 3
10 22 4
10 23 5
10 24 5
10 25 5
10 26 6
10 27 6
10 28 5
10 29 3
10 30 4
10 31 3
10 32 3
10 33 7
10 34 5
10 35 6
10 36 4
10 37 3
10 38 1
10 39 2
10 40 4
10 41 7
10 42 9
10 43 2
10 44 5
10 45 6
10 46 4
10 47 1
10 48 4
10 53 6
10 54 3
10 58 5
10 60 5
10 61 4
10 63 2
10 64 4
10 65 2
10 76 5
10 79 2
10 92 1
10 101 4
10 102 4
10 103 7
10 107 6
10 117 3
10 128 5
10 129 2
10 130 1
10 151 5
10 159 8
10 200 4
11 12 2
11 13 6
11 14 7
11 15 5
11 16 5
11 17 4
11 18 7
11 19 4
11 20 2
11 21 7
11 22 6
11 25 7
11 26 7
11 27 7
11 28 2
11 29 2
11 30 7
11 33 6
11 34 1
11 35 5
11 36 3
11 37 5
11 39 3
11 40 3
11 48 4
11 49 1
11 50 4
11 51 2
11 52 7
11 53 6
11 57 2
11 59 10
11 69 6
11 72 5
11 73 3
11 75 2
11 78 6
11 81 4
11 90 5
11 100 2
11 134 1
11 135 4
11 152 3
11 156 2
11 167 3
11 185 4
11 189 2
12 13 7
12 14 2
12 15 4
12 16 5
12 18 2
12 19 3
12 20 5
12 21 5
12 22 4
12 23 7
12 24 1
12 25 1
12 26 5
12 27 5
12 28 2
12 29 5
12 30 7
12 31 7
12 32 3
12 34 6
12 36 4
12 37 6
12 38 7
12 39 4
12 41 2
12 42 7
12 43 5
12 44 2
12 46 7
12 47 3
12 54 1
12 55 4
12 56 6
12 58 6
12 60 7
12 61 6
12 63 6
12 64 4
12 66 6
12 71 5
12 76 1
12 83 4
12 88 6
12 91 6
12 103 6
12 106 3
12 108 6
12 111 7
12 121 7
12 123 1
12 126 6
12 127 7
12 138 6
12 141 2
12 168 1
12 190 2
13 14 5
13 16 4
13 17 1
13 18 4
13 19 5
13 20 2
13 21 5
13 22 3
13 23 1
13 25 5
13 26 7
13 27 4
13 29 1
13 31 6
13 32 1
13 33 4
13 34 6
13 35 3
13 36 6
13 38 5
13 39 4
13 43 2
13 44 1
13 45 4
13 46 2
13 48 3
13 50 7
13 51 7
13 52 6
13 53 5
13 55 3
13 62 7
13 63 2
13 67 2
13 68 1
13 72 3
13 74 4
13 77 2
13 80 6
13 84 7
13 85 4
13 96 4
13 97 3
13 106 5
13 110 4
13 162 6
13 184 8
14 15 7
14 16 4
14 17 1
14 18 2
14 19 4
14 20 4
14 21 6
14 22 3
14 24 3
14 25 6
14 26 7
14 27 2
14 28 6
14 29 3
14 30 1
14 31 3
14 32 3
14 34 1
14 36 3
14 37 7
14 38 4
14 39 6
14 41 2
14 42 10
14 43 4
14 44 3
14 46 1
14 54 5
14 55 6
14 56 3
14 58 3
14 60 5
14 61 4
14 63 3
14 64 7
14 66 7
14 67 3
14 71 6
14 76 1
14 79 1
14 83 4
14 91 7
14 108 4
14 118 6
14 126 7
14 127 1
14 163 4
14 188 1
15 16 1
15 17 1
15 18 5
15 19 3
15 20 5
15 21 2
15 22 4
15 23 2
15 24 6
15 25 2
15 27 4
15 28 4
15 29 2
15 30 1
15 31 3
15 32 7
15 33 2
15 34 3
15 35 1
15 36 6
15 37 7
15 38 4
15 39 7
15 41 6
15 43 2
15 44 4
15 45 4
15 46 5
15 52 7
15 54 2
15 55 3
15 58 7
15 60 4
15 61 7
15 63 5
15 64 4
15 65 3
15 66 1
15 70 10
15 79 5
15 91 7
15 92 5
15 93 5
15 94 6
15 95 3
15 103 4
15 109 4
15 117 2
16 17 2
16 18 3
16 19 6
16 20 4
16 21 5
16 22 4
16 25 1
16 26 2
16 28 2
16 29 1
16 30 3
16 33 5
16 34 6
16 35 1
16 36 4
16 37 4
16 44 1
16 45 7
16 48 3
16 49 2
16 50 5
16 51 10
16 52 3
16 53 6
16 57 7
16 62 1
16 67 4
16 69 7
16 72 7
16 73 3
16 74 4
16 77 4
16 80 7
16 81 4
16 84 2
16 86 5
16 104 2
16 105 2
16 116 3
16 119 4
16 131 6
16 135 1
17 18 2
17 20 1
17 22 2
17 25 6
17 26 2
17 28 5
17 33 1
17 35 2
17 36 6
17 39 5
17 40 6
17 48 6
17 50 5
17 51 3
17 52 1
17 53 3
17 57 4
17 59 8
17 62 1
17 68 7
17 69 5
17 73 1
17 74 2
17 75 1
17 77 3
17 78 3
17 80 5
17 81 7
17 84 2
17 87 2
17 89 5
17 98 7
17 99 3
17 112 3
17 119 3
17 122 6
17 124 3
17 131 4
17 139 7
17 143 3
17 157 7
17 161 4
17 166 7
17 199 4
18 19 1
18 20 1
18 21 5
18 22 5
18 25 1
18 26 4
18 27 7
18 28 3
18 29 4
18 30 3
18 32 4
18 33 3
18 34 7
18 35 3
18 36 7
18 37 1
18 39 7
18 40 7
18 42 10
18 44 6
18 48 5
18 49 5
18 50 1
18 52 7
18 53 5
18 57 2
18 69 5
18 72 6
18 73 5
18 75 2
18 78 4
18 81 2
18 84 3
18 90 2
18 106 6
18 131 5
18 134 3
18 152 4
18 182 8
19 20 4
19 21 4
19 22 2
19 23 3
19 24 2
19 25 4
19 27 2
19 29 6
19 30 6
19 31 4
19 32 6
19 34 3
19 35 6
19 36 7
19 37 7
19 38 7
19 39 6
19 41 2
19 43 5
19 44 2
19 45 4
19 46 5
19 47 6
19 55 2
19 56 2
19 60 5
19 61 2
19 62 6
19 65 2
19 66 7
19 70 7
19 93 6
19 94 6
19 95 6
19 96 3
19 97 4
19 109 3
19 110 7
19 117 2
19 120 5
20 21 5
20 22 1
20 23 3
20 24 4
20 25 2
20 26 1
20 27 2
20 28 6
20 29 6
20 30 4
20 31 3
20 32 5
20 34 2
20 36 5
20 37 3
20 38 3
20 39 4
20 41 1
20 42 8
20 43 6
20 44 4
20 46 3
20 47 2
20 54 1
20 55 6
20 56 5
20 58 3
20 63 5
20 66 3
20 70 4
20 71 1
20 76 7
20 83 4
20 97 7
20 111 2
20 123 4
20 138 1
20 165 6
21 22 2
21 23 1
21 24 7
21 25 5
21 26 2
21 27 4
21 28 7
21 29 1
21 32 1
21 34 1
21 36 1
21 38 4
21 39 6
21 41 3
21 42 10
21 43 3
21 44 7
21 46 4
21 54 1
21 55 6
21 56 2
21 58 2
21 60 4
21 61 5
21 63 2
21 64 7
21 66 7
21 71 5
21 76 2
21 79 4
21 83 3
21 132 4
21 186 9
22 23 7
22 24 3
22 25 4
22 26 1
22 27 6
22 28 3
22 29 3
22 30 5
22 31 3
22 32 3
22 34 1
22 37 4
22 38 4
22 41 6
22 42 9
22 43 6
22 44 5
22 46 4
22 48 3
22 54 5
22 56 6
22 58 4
22 60 1
22 61 5
22 64 7
22 71 5
22 91 4
22 141 5
22 151 3
23 24 1
23 26 3
23 27 4
23 28 7
23 29 5
23 30 7
23 31 2
23 32 6
23 34 5
23 36 3
23 37 5
23 38 6
23 39 6
23 41 6
23 42 8
23 43 5
23 44 6
23 46 3
23 47 6
23 54 5
23 55 7
23 58 3
23 60 5
23 61 4
23 63 7
23 64 3
23 65 7
23 66 3
23 79 6
23 88 4
23 91 6
23 126 5
23 131 8
23 163 3
24 27 2
24 28 2
24 29 3
24 31 1
24 32 3
24 38 6
24 41 4
24 43 2
24 46 2
24 54 4
24 55 7
24 56 7
24 58 1
24 60 5
24 61 2
24 63 1
24 64 5
24 66 1
24 71 7
24 76 5
24 79 2
24 83 6
24 88 6
24 107 6
24 108 7
24 111 7
24 121 6
24 123 2
24 130 5
24 138 3
24 158 4
24 163 9
24 188 10
25 28 4
25 29 5
25 30 5
25 32 7
25 33 6
25 34 1
25 35 6
25 36 6
25 37 5
25 44 5
25 47 2
25 48 6
25 49 3
25 50 6
25 51 8
25 52 1
25 53 1
25 57 4
25 62 4
25 69 4
25 72 4
25 73 5
25 77 3
25 81 6
25 84 6
25 86 3
25 119 8
26 27 4
26 28 4
26 29 2
26 31 1
26 32 1
26 35 3
26 38 3
26 39 3
26 41 4
26 54 4
26 56 2
26 60 4
26 61 1
26 64 4
26 66 1
26 71 9
26 76 3
26 88 4
26 91 6
26 107 9
26 118 4
26 120 2
26 126 3
26 127 4
26 132 3
27 28 6
27 29 6
27 30 2
27 31 6
27 32 3
27 34 7
27 35 1
27 37 5
27 38 2
27 39 1
27 41 1
27 43 7
27 45 3
27 46 6
27 48 1
27 55 3
27 56 8
27 63 2
27 83 6
27 111 6
27 123 5
27 165 3
27 168 2
27 190 1
28 29 7
28 31 5
28 32 2
28 34 4
28 35 3
28 38 3
28 39 1
28 41 3
28 44 1
28 45 4
28 46 5
28 54 5
28 56 7
28 58 5
28 60 4
28 61 4
28 64 1
28 111 3
28 123 7
28 168 1
28 190 4
29 31 7
29 32 1
29 34 6
29 36 4
29 37 6
29 38 1
29 39 5
29 41 4
29 43 4
29 46 2
29 47 10
29 54 1
29 61 5
29 63 3
29 65 3
29 76 4
29 106 4
29 151 2
30 31 1
30 32 4
30 34 2
30 36 3
30 37 4
30 38 5
30 39 3
30 43 7
30 45 7
30 62 6
30 65 4
30 67 6
30 70 8
30 74 2
30 77 4
30 80 4
30 86 7
30 94 6
30 95 6
30 110 3
30 120 5
31 32 3
31 34 6
31 36 5
31 37 6
31 38 3
31 39 7
31 41 4
31 42 7
31 43 6
31 44 1
31 46 7
31 47 6
31 54 7
31 58 7
31 64 2
31 65 1
31 66 4
31 76 3
31 79 7
31 88 2
32 34 1
32 37 2
32 38 6
32 39 1
32 41 6
32 42 7
32 43 1
32 44 3
32 46 2
32 47 1
32 56 4
32 63 1
32 97 4
32 121 4
32 165 9
33 35 3
33 40 1
33 48 5
33 50 3
33 51 3
33 53 1
33 57 5
33 59 8
33 68 6
33 69 2
33 73 1
33 75 3
33 89 5
33 100 9
33 114 7
33 115 2
33 125 2
33 140 3
33 153 7
33 156 7
33 167 9
33 189 9
33 191 8
33 197 1
33 198 1
34 36 6
34 38 7
34 39 4
34 42 7
34 43 5
34 44 7
34 47 3
34 65 4
34 103 1
34 118 1
34 160 6
35 36 1
35 37 2
35 48 4
35 49 5
35 50 2
35 51 8
35 52 4
35 53 3
35 57 5
35 69 4
35 72 3
35 73 4
35 78 3
35 81 3
36 37 5
36 47 2
36 68 7
36 74 5
36 77 5
36 80 6
36 86 6
37 38 6
37 44 9
37 102 4
37 103 5
37 142 3
37 175 4
38 39 2
38 41 7
38 43 1
38 46 2
38 47 7
38 83 4
39 45 2
39 62 4
39 70 2
39 85 9
40 49 10
40 82 10
40 113 9
40 155 9
41 46 1
41 54 2
41 56 7
41 58 7
41 64 1
42 44 3
42 65 9
42 92 10
42 103 7
42 117 7
42 118 9
42 128 9
42 129 7
42 147 5
42 160 10
42 176 9
43 46 4
43 47 7
43 63 10
43 121 1
44 47 10
45 47 3
45 52 7
45 62 1
45 67 7
45 70 9
45 72 1
45 74 3
45 80 5
45 85 7
45 150 2
45 162 3
46 55 9
46 83 9
47 71 9
47 181 8
48 50 4
48 51 8
48 53 2
48 67 4
48 69 6
48 73 6
48 81 7
48 106 8
48 135 3
49 51 7
49 90 7
49 152 9
49 192 7
49 193 10
50 51 9
50 53 2
50 57 7
50 69 2
50 73 6
50 78 7
50 185 1
51 53 8
51 57 7
51 69 9
51 73 8
51 78 10
51 81 7
52 68 5
52 72 2
52 84 4
52 85 8
52 133 7
52 149 7
52 150 7
53 57 4
53 69 7
53 78 6
54 58 6
54 64 5
54 79 9
55 71 8
55 88 4
55 97 7
55 121 7
55 138 8
56 111 3
56 123 7
56 168 9
57 69 1
57 73 6
57 78 5
57 81 6
57 135 3
58 64 9
58 83 8
59 68 7
59 75 9
59 89 10
59 98 8
59 99 7
59 112 9
59 114 10
59 122 8
59 124 8
59 125 8
59 139 8
59 154 9
60 61 7
60 132 9
62 67 3
62 72 3
62 85 10
62 162 7
65 70 9
65 93 10
66 108 7
66 132 10
67 72 3
67 85 7
67 149 4
67 150 3
67 162 7
68 74 3
68 80 6
68 86 1
68 104 9
68 133 9
68 143 9
68 197 10
69 78 5
69 134 7
70 109 10
70 120 10
70 137 8
70 164 9
71 88 1
71 111 10
71 123 8
71 187 8
72 85 10
72 149 2
72 150 2
73 78 7
74 80 1
74 85 8
74 86 1
74 95 6
75 89 4
75 114 3
75 125 1
75 161 9
75 199 9
76 141 10
76 151 10
77 104 7
77 145 5
79 91 9
79 158 9
80 85 7
81 84 7
82 194 10
82 195 7
83 151 7
84 133 9
85 95 7
85 133 8
85 149 5
85 150 8
86 148 9
87 105 7
87 143 7
87 144 10
87 145 8
87 166 8
87 172 7
88 108 9
89 114 1
89 115 2
89 125 3
89 140 6
90 152 2
90 192 7
91 141 10
92 117 7
92 118 6
92 128 6
92 178 10
93 94 7
93 132 7
93 183 8
95 148 7
96 97 4
96 109 5
96 110 1
96 136 6
96 137 10
97 136 8
98 99 7
98 112 3
98 122 2
98 124 7
98 139 3
98 154 3
99 112 3
99 122 3
99 124 2
99 139 1
99 154 3
100 153 3
100 156 5
100 167 4
100 189 1
101 102 10
101 129 8
101 142 9
101 173 7
101 174 8
101 175 7
102 142 7
105 116 9
105 146 8
105 179 9
107 130 7
108 187 9
109 110 6
109 136 7
109 137 2
110 137 3
110 164 9
111 123 3
112 122 4
112 124 7
112 154 1
113 155 1
113 169 8
113 170 9
114 115 3
114 125 7
114 140 7
115 125 7
115 140 10
115 171 8
116 144 1
116 177 7
121 138 4
122 124 6
122 139 6
124 139 2
124 154 7
126 127 8
127 141 9
128 129 6
128 176 5
133 149 9
134 135 7
134 185 7
136 137 7
136 164 9
139 154 6
140 171 1
142 174 1
142 175 6
144 145 7
146 147 8
146 179 5
153 156 3
153 167 6
153 189 1
153 191 6
157 161 10
167 191 3
168 190 10
169 170 7
171 198 9
173 174 7
173 200 9
193 196 9
194 195 6
