200 278 366.667
1
2
2
3
2
6
4
6
7
8
4
5
8
4
6
9
1
4
1
3
7
3
5
7
6
10
2
6
3
1
3
8
5
5
7
6
7
3
4
6
2
5
2
7
7
3
7
8
3
5
3
7
6
6
4
9
10
7
7
4
3
2
6
2
3
4
1
1
5
9
9
6
4
5
6
8
9
10
10
5
9
5
4
1
6
4
4
1
3
5
7
3
10
9
6
2
9
7
10
7
5
1
4
7
3
7
7
10
4
7
4
2
7
3
2
5
4
6
9
3
6
8
7
5
4
9
8
8
6
1
9
7
4
8
5
5
7
5
2
8
6
9
5
7
4
5
8
1
5
4
8
4
6
7
7
10
9
8
5
8
1
6
8
5
1
9
6
10
5
10
10
9
6
7
6
7
8
8
6
2
1
9
6
10
6
2
8
4
10
4
10
5
7
6
10
6
10
7
3
7
1 2 4
1 3 10
1 11 6
1 12 2
1 15 4
1 16 7
2 3 8
2 11 6
2 12 6
2 16 5
2 145 3
3 4 9
3 11 7
3 12 9
3 15 9
4 5 5
4 7 1
4 17 9
4 147 2
5 6 9
5 17 3
5 18 5
5 148 8
5 152 9
6 19 10
6 153 7
6 154 10
6 155 7
7 8 8
7 9 5
7 13 2
7 147 3
8 9 4
8 10 8
8 156 10
9 10 10
9 13 10
10 19 8
11 12 7
11 14 8
12 14 7
15 16 10
16 145 9
17 147 7
17 156 7
18 27 7
19 20 8
19 155 6
20 21 10
20 157 8
21 22 1
22 23 7
22 76 9
22 77 9
22 158 9
23 24 6
23 25 10
23 26 8
24 25 9
24 26 2
24 159 9
25 157 8
27 28 10
27 29 10
28 31 7
28 78 3
28 160 9
28 161 8
29 30 2
29 32 6
29 79 2
29 154 3
30 32 7
30 79 7
30 163 10
30 164 9
31 33 8
31 78 8
31 165 10
32 153 9
32 167 7
33 34 9
33 168 9
34 35 5
34 169 10
34 170 8
34 171 7
35 36 2
35 37 10
35 41 1
35 172 4
35 173 2
35 174 4
36 37 3
36 38 7
36 80 7
36 81 4
36 175 4
36 176 10
37 51 9
37 172 10
37 174 7
37 177 8
38 39 7
38 48 9
38 81 10
38 178 10
39 40 7
39 82 8
40 61 9
40 179 8
41 42 6
41 49 10
41 183 3
41 184 10
41 185 7
42 43 7
42 44 8
42 45 7
42 47 7
42 83 1
42 185 7
42 186 7
42 188 8
43 46 7
43 69 7
44 189 10
45 49 9
45 70 9
45 84 8
45 190 10
45 191 10
46 85 9
47 192 7
49 50 10
49 183 9
49 193 9
50 80 10
50 194 9
50 195 9
51 52 7
51 86 7
52 53 6
52 54 9
52 56 7
52 71 3
52 83 6
53 55 7
53 71 4
53 72 6
53 87 10
53 88 3
53 196 5
54 55 8
54 57 8
54 58 9
54 73 2
55 72 1
55 100 7
55 198 9
56 71 9
56 178 9
57 72 10
57 73 9
57 83 7
58 59 10
58 60 8
59 70 10
60 74 9
61 62 8
61 101 7
62 63 10
62 65 7
62 105 2
62 106 10
63 64 10
63 66 8
63 106 5
63 107 7
64 66 6
64 84 4
64 108 9
64 109 10
64 110 8
65 66 1
65 67 8
65 68 9
65 114 9
66 107 4
67 68 7
67 116 9
67 117 10
68 75 8
68 117 4
69 118 10
71 88 9
73 119 7
76 77 7
76 158 6
77 158 6
79 120 10
83 178 10
84 190 1
86 121 8
87 122 7
88 89 9
89 90 7
89 123 7
90 91 8
90 96 10
91 92 9
91 93 7
91 124 8
92 94 3
92 95 4
92 98 2
92 99 7
92 125 4
93 94 9
93 99 7
93 124 1
94 99 1
95 98 8
95 123 8
96 97 9
98 125 8
100 126 9
101 102 9
102 103 8
102 127 8
103 104 9
103 128 8
104 129 9
105 130 9
105 131 10
105 132 4
106 133 10
108 109 5
109 134 9
110 111 9
110 135 10
111 112 9
112 113 7
112 136 9
114 115 7
115 137 7
115 139 8
116 140 9
120 160 7
120 167 10
120 196 9
127 130 8
130 141 8
132 141 7
133 142 10
135 143 10
137 138 7
139 144 9
145 146 9
148 149 10
148 150 10
150 151 10
154 167 9
161 162 7
163 164 4
165 166 10
169 170 3
171 172 10
173 184 8
175 177 7
179 180 9
180 181 8
181 182 9
186 187 7
187 191 7
196 197 7
198 199 9
199 200 7
