200 281 366.667
6
2
6
1
3
10
5
10
4
5
3
6
1
1
5
6
3
5
5
3
8
9
4
10
6
6
5
10
7
4
7
10
7
5
7
3
3
1
7
3
2
4
6
3
3
2
1
3
5
7
4
1
9
5
9
7
7
3
1
1
7
5
3
3
1
3
1
3
4
2
6
7
4
1
4
7
5
8
8
7
9
7
7
1
7
8
2
9
6
6
10
6
7
3
7
4
7
10
9
9
9
10
1
8
6
3
6
8
8
9
9
7
7
9
7
8
9
5
7
8
6
4
8
1
10
4
7
1
10
10
6
3
7
5
4
6
3
9
2
8
8
4
2
8
7
7
10
5
8
8
2
3
8
10
4
10
9
8
9
6
9
4
9
6
5
6
6
4
6
4
9
5
8
10
8
10
10
2
8
10
2
4
9
4
9
6
2
6
4
8
4
9
1
4
6
1
3
8
2
9
1 2 10
2 3 7
2 9 10
3 4 8
3 5 10
3 10 7
4 6 10
4 10 6
4 11 10
5 7 8
5 8 7
7 8 6
11 12 9
12 13 9
13 14 10
13 21 8
13 22 9
13 31 7
13 32 8
13 33 9
14 15 7
14 18 5
14 22 6
14 35 8
15 16 4
15 23 7
15 24 7
15 96 7
16 17 1
16 25 7
16 27 5
16 97 8
17 22 8
17 27 5
17 28 5
17 98 9
18 19 9
18 20 6
18 29 10
18 31 6
19 30 7
19 99 10
19 100 9
19 101 7
20 102 9
20 103 10
21 32 6
21 33 7
22 29 7
23 24 5
25 26 9
25 28 8
26 29 8
26 103 7
27 28 10
30 99 2
33 34 7
34 104 10
34 105 10
34 106 8
35 36 7
36 37 7
37 38 10
37 108 8
37 109 7
38 39 10
38 57 9
38 110 10
39 40 6
39 62 4
40 41 3
40 44 9
40 46 6
40 57 7
40 63 7
40 111 7
40 112 9
41 42 2
41 43 4
41 64 3
41 113 7
41 114 6
41 115 10
42 50 7
42 65 8
42 117 6
43 46 5
43 51 5
43 113 10
43 118 6
43 119 2
43 120 9
44 45 4
44 75 4
44 112 7
44 121 2
45 66 9
45 122 2
45 123 9
45 124 7
45 125 8
46 47 3
46 49 8
46 126 7
47 48 7
47 53 2
47 77 6
47 78 1
47 127 7
47 128 3
48 49 7
48 77 7
48 79 9
48 81 7
48 108 2
48 129 1
49 82 7
49 130 9
50 132 8
51 52 4
51 120 7
52 54 1
52 67 10
52 133 5
52 134 4
53 63 8
53 68 1
53 78 9
54 55 9
54 69 9
55 56 9
56 135 9
57 58 5
57 59 7
58 70 8
58 108 4
58 136 10
59 60 2
59 71 4
59 72 10
59 73 2
59 118 3
60 61 10
60 117 5
60 134 1
60 137 4
61 83 7
61 138 8
61 139 7
62 140 7
62 142 5
62 143 7
63 68 7
63 145 10
64 84 4
64 146 6
64 147 7
64 148 6
65 86 8
65 149 9
65 150 8
66 87 6
66 151 9
66 155 7
67 156 9
67 157 7
68 159 9
68 160 7
68 161 2
69 74 8
70 88 9
70 89 8
70 145 8
71 72 8
71 138 10
72 134 8
72 162 9
73 83 5
73 117 10
73 150 8
74 90 10
75 76 10
75 91 3
75 92 5
76 93 9
76 121 10
76 163 9
77 128 6
79 80 8
80 128 10
81 129 7
81 142 8
82 110 10
83 132 8
83 164 9
84 85 9
84 146 9
85 165 9
85 166 7
87 94 7
87 125 8
88 145 7
89 150 9
89 164 8
89 167 9
91 92 6
91 169 9
92 93 9
92 122 10
93 95 5
94 170 7
94 171 10
95 124 7
95 163 8
96 97 9
96 172 2
97 172 10
103 173 7
105 174 9
106 107 8
106 174 4
107 175 7
109 129 9
109 143 9
110 136 9
111 121 8
114 176 7
115 116 10
115 119 7
116 147 8
116 177 8
118 136 8
120 146 9
124 169 8
126 147 7
126 178 7
130 131 9
131 178 10
131 179 9
132 180 7
133 166 10
135 139 8
135 181 9
137 185 9
140 141 9
141 142 7
143 144 8
148 177 10
148 186 9
151 152 8
151 154 7
152 153 7
152 155 7
152 187 7
152 196 10
153 154 8
157 158 9
158 164 8
159 160 2
161 167 10
166 186 10
167 168 8
176 186 7
178 179 1
181 182 8
181 183 9
182 184 10
183 185 10
187 188 9
187 192 10
188 189 7
188 190 10
189 190 6
189 191 10
189 193 9
189 194 9
193 195 8
196 197 8
197 198 9
197 199 10
199 200 8
