200 256 366.667
5
7
5
1
7
1
7
10
5
1
5
9
6
6
7
6
7
1
1
1
3
3
1
10
1
4
5
9
6
4
3
6
6
1
2
6
2
5
4
1
4
10
8
5
6
7
1
8
8
6
6
3
3
5
6
7
1
1
8
4
6
2
5
5
6
7
5
2
4
8
4
4
5
10
6
2
9
9
9
7
8
8
10
8
9
2
10
9
6
10
2
8
9
10
4
4
4
10
8
9
8
4
8
6
4
6
7
6
5
3
6
7
7
4
6
9
1
3
7
10
2
3
4
3
10
1
7
4
8
9
3
7
6
6
7
7
7
7
7
5
7
10
5
9
4
4
6
4
1
8
8
9
8
7
5
7
8
6
7
6
9
6
7
6
8
8
5
10
7
4
4
4
7
4
9
9
5
7
7
7
6
7
6
7
9
6
8
4
7
6
6
4
10
10
10
4
10
8
6
6
1 2 2
1 152 8
1 153 10
1 154 9
2 3 3
2 6 9
2 7 10
2 152 4
2 155 6
3 4 3
3 12 7
3 13 8
3 25 1
3 26 8
3 27 9
4 5 7
4 12 1
4 28 7
4 42 7
4 43 5
4 156 3
4 157 1
5 9 9
5 14 8
5 44 7
5 46 7
5 156 8
6 10 10
6 47 10
6 48 10
6 158 10
7 8 9
7 18 9
7 19 8
7 160 8
8 18 5
8 49 7
9 20 1
9 21 10
9 50 8
9 161 9
10 11 8
10 51 7
10 59 7
10 162 7
11 60 10
11 162 2
11 163 10
12 14 7
12 155 7
13 61 7
13 62 8
13 164 10
14 15 7
14 165 9
15 16 2
15 17 1
15 64 2
15 165 5
15 166 1
15 167 7
16 65 10
16 66 10
17 67 10
17 71 4
17 72 8
17 73 5
18 22 3
18 74 8
19 168 9
20 75 7
20 169 9
20 170 8
21 77 10
21 171 8
22 23 7
22 24 7
22 49 10
23 24 1
23 173 3
23 174 9
23 175 7
25 66 10
25 176 9
26 177 8
27 180 9
28 29 7
29 30 7
29 42 10
29 43 7
29 78 6
30 31 1
30 32 7
30 34 9
30 36 2
30 78 7
30 79 7
31 33 10
31 74 6
31 80 8
31 82 7
31 83 5
32 35 7
32 37 10
32 79 8
33 84 10
33 181 8
34 36 8
34 87 7
34 182 7
34 183 10
34 184 9
35 88 7
35 185 9
35 186 10
36 187 9
37 38 8
37 39 10
37 188 9
38 189 8
38 190 9
38 191 7
38 192 1
39 40 8
39 89 9
39 193 8
40 41 3
40 90 2
40 192 10
41 75 7
41 91 8
41 92 7
41 194 8
44 45 7
44 93 9
45 94 7
47 195 9
48 154 9
48 166 8
49 173 10
50 191 8
50 196 10
51 52 6
52 53 10
52 59 4
52 95 10
52 97 9
52 98 10
52 99 8
53 54 9
53 98 1
53 100 10
54 55 8
54 101 8
54 102 8
55 56 6
55 58 7
55 197 5
56 57 7
56 102 2
56 103 5
56 198 3
57 198 8
57 199 8
58 100 8
58 104 10
58 105 8
60 108 10
60 200 10
61 163 8
62 63 10
62 109 8
63 111 7
63 112 10
63 113 7
64 168 10
66 67 10
67 68 7
68 69 9
68 70 7
68 114 10
69 114 1
69 115 8
70 73 10
71 186 7
72 116 9
75 76 8
76 117 9
76 119 10
76 120 2
80 81 9
81 82 1
83 181 10
84 85 7
85 86 7
86 121 8
86 122 10
89 90 9
91 130 10
92 176 10
93 153 8
93 157 8
94 119 9
94 120 8
95 96 9
95 131 9
96 100 4
96 132 8
96 135 10
97 117 9
97 136 10
101 103 10
101 197 7
102 103 1
104 199 9
105 106 7
106 107 10
106 137 10
107 138 7
109 110 7
109 139 8
110 141 7
114 142 9
117 118 9
118 143 10
121 144 7
121 160 8
122 123 10
123 124 10
123 125 10
124 126 3
124 128 1
124 145 8
125 129 8
126 127 9
126 129 9
128 144 9
131 146 8
132 133 10
133 134 7
133 135 2
134 147 8
137 138 2
139 140 8
139 187 9
140 148 8
140 149 10
149 150 8
149 151 8
158 159 8
161 193 8
171 172 10
174 175 2
177 178 8
178 179 7
178 180 6
