200 341 366.667
5
6
4
3
5
5
2
10
8
5
7
7
6
2
5
3
2
1
3
9
6
4
3
3
3
10
6
7
5
1
9
6
8
6
4
2
4
7
6
4
2
5
1
8
8
6
8
10
6
9
8
6
10
6
2
6
1
6
2
7
6
9
2
9
8
6
10
4
2
9
8
9
5
7
5
9
4
8
6
8
6
9
5
9
1
2
2
9
9
3
9
7
6
10
2
7
1
5
2
7
3
5
5
7
3
1
9
6
6
5
9
3
7
5
6
10
10
10
9
5
10
6
5
6
2
3
3
6
10
7
6
3
10
10
6
5
10
4
5
6
8
10
1
9
7
5
9
3
2
4
10
4
5
8
5
5
2
8
10
7
4
6
8
3
7
10
6
10
10
5
5
7
3
4
5
4
4
7
7
8
8
8
9
10
6
7
6
7
8
6
7
7
10
9
7
9
10
6
7
9
1 2 9
1 4 7
1 8 7
1 9 7
2 3 8
2 10 8
3 9 2
3 10 5
4 5 9
4 11 9
5 6 9
5 12 4
6 7 10
6 13 10
7 108 7
7 119 8
9 12 7
11 120 7
13 14 9
14 15 7
14 121 7
15 16 7
15 17 7
15 122 5
16 18 8
16 123 7
17 65 8
17 170 7
18 19 8
18 21 10
18 22 10
19 20 5
19 24 8
19 66 1
19 171 8
20 22 8
20 67 7
21 177 9
22 23 1
22 66 9
23 25 3
23 26 7
23 28 5
23 65 4
23 67 4
23 178 4
23 179 4
24 68 9
24 69 10
25 29 9
25 30 6
25 180 3
25 181 2
26 27 8
26 28 8
26 67 7
26 182 10
27 29 1
27 31 1
27 32 4
27 33 6
27 70 1
28 182 7
28 183 9
28 184 9
29 34 10
29 70 1
29 181 10
30 35 4
30 48 7
30 185 4
30 186 1
31 33 3
31 34 7
31 70 4
31 180 8
32 33 8
32 180 2
32 187 3
32 188 2
33 70 7
33 71 10
34 71 9
34 187 8
34 189 8
35 36 2
35 49 5
35 72 10
35 190 2
36 37 5
36 38 2
36 39 4
36 44 3
36 49 7
36 73 9
37 38 7
37 39 6
37 44 6
37 49 9
37 50 6
37 73 5
37 191 5
37 192 6
38 178 1
38 179 5
38 193 9
38 194 10
39 40 1
39 41 4
39 42 6
39 45 7
39 73 7
40 41 7
40 42 7
40 43 2
40 45 7
40 46 6
40 47 2
40 73 5
40 74 7
40 193 3
41 42 5
41 45 4
41 47 6
41 51 2
41 52 9
41 53 6
41 74 3
41 195 5
42 45 2
42 47 5
42 51 2
42 52 7
42 75 1
43 46 2
43 47 6
43 54 6
43 55 9
43 76 2
43 196 6
43 197 5
44 49 9
44 50 3
44 191 3
44 192 10
45 53 9
45 195 10
46 47 1
46 54 9
46 56 1
46 198 2
47 198 8
48 59 4
48 72 8
48 197 8
48 199 5
49 190 10
50 51 4
50 53 10
50 75 3
51 53 8
51 75 1
52 60 9
52 74 10
52 195 9
53 75 9
54 60 9
54 61 3
54 76 10
55 59 8
55 61 7
55 184 7
55 197 8
56 57 1
56 62 2
56 196 9
56 200 9
57 58 9
57 63 2
57 76 2
57 77 5
58 62 10
58 64 8
58 77 9
59 62 7
59 63 7
59 199 5
60 64 7
60 184 1
61 62 1
61 196 8
62 63 2
63 78 10
64 78 10
64 183 7
68 69 5
69 79 9
71 183 10
72 178 10
72 186 8
74 198 8
78 193 10
79 80 8
79 81 7
79 93 8
80 82 7
80 94 9
81 82 2
81 83 6
81 94 7
82 83 6
83 84 9
83 85 4
83 93 7
84 85 6
85 86 4
85 89 5
85 90 10
86 87 9
86 88 10
86 89 1
86 90 7
86 91 3
86 92 8
87 88 2
87 92 3
87 95 9
87 99 8
88 92 4
89 90 7
90 91 9
90 100 9
93 100 8
95 96 7
95 99 3
96 97 10
97 98 10
97 101 7
98 103 9
98 104 8
99 105 10
101 102 8
103 104 4
105 106 10
106 107 7
108 109 7
109 110 9
109 111 7
109 112 7
110 111 5
110 115 9
111 113 7
112 114 8
112 116 10
113 114 2
114 117 5
114 118 4
116 117 7
117 118 9
121 122 8
123 124 10
124 125 10
125 126 8
125 136 9
126 127 10
126 128 7
126 129 7
126 137 9
127 130 1
127 132 2
127 133 1
127 138 3
128 137 3
128 142 8
128 150 10
129 151 9
130 131 10
130 152 1
131 132 7
131 134 9
131 135 10
132 153 7
132 154 9
133 155 10
134 153 7
135 152 3
137 154 7
138 139 10
138 158 8
139 140 9
140 141 7
140 159 7
142 143 6
142 160 10
143 144 3
143 145 6
143 150 9
143 161 5
144 146 2
144 147 7
145 160 9
145 162 9
146 147 6
146 150 9
146 151 2
146 161 4
147 148 5
147 163 8
148 149 9
148 151 2
148 153 4
148 158 4
149 158 8
149 164 7
149 165 9
150 161 9
152 160 7
152 162 6
153 163 6
155 156 8
155 166 9
156 157 8
156 164 4
157 164 5
157 167 10
159 166 9
160 165 9
162 163 10
164 169 8
167 168 10
171 172 10
172 173 10
173 174 7
173 175 9
175 176 9
179 185 7
181 185 8
186 190 7
187 188 9
189 199 9
191 194 10
