200 289 366.667
6
7
6
7
6
1
1
4
6
5
7
1
6
4
2
4
8
3
3
5
9
3
3
3
8
6
6
5
4
2
6
4
4
9
5
5
5
6
7
1
3
1
3
10
6
7
5
6
5
6
1
2
2
6
1
1
7
6
1
7
3
1
4
5
7
3
7
2
6
2
3
3
10
6
4
1
6
6
7
6
9
8
6
2
4
3
9
7
8
5
2
9
9
10
9
9
6
5
7
7
5
10
10
9
7
2
9
10
7
3
3
2
6
9
6
4
10
5
7
8
10
9
5
3
9
6
9
2
6
5
4
8
4
5
1
7
6
8
8
6
10
8
5
10
3
3
1
7
4
6
7
7
4
4
1
10
7
4
7
4
9
8
8
1
7
1
4
8
4
5
4
5
6
5
6
10
6
8
9
10
8
10
7
5
4
4
2
8
10
9
7
5
6
9
6
5
5
5
10
9
1 2 10
1 3 4
1 168 9
1 169 4
1 170 1
1 171 8
2 3 10
2 4 8
2 6 2
2 170 10
3 172 10
4 5 7
4 173 10
5 9 10
5 176 7
5 180 7
6 7 7
6 84 9
7 8 8
7 181 10
7 182 10
8 172 1
8 183 8
8 184 10
8 185 9
8 186 10
9 10 7
9 84 9
10 11 6
10 13 10
10 16 6
10 85 1
10 187 4
11 12 2
11 14 7
11 16 4
11 17 7
12 15 8
12 18 5
12 30 4
12 86 10
12 188 5
12 189 9
12 190 9
13 17 10
13 32 7
13 89 9
14 34 10
14 191 7
14 192 10
14 193 8
15 90 10
15 194 10
15 195 10
15 196 9
16 17 8
16 197 10
18 19 8
18 20 8
18 30 10
19 21 10
19 22 9
19 35 7
19 85 5
19 198 9
20 25 8
20 199 10
20 200 7
21 22 2
21 35 5
22 23 9
22 46 8
23 24 7
23 26 10
23 51 7
23 91 8
24 92 8
26 27 8
26 93 9
27 28 6
28 29 4
28 91 9
28 92 7
29 51 10
30 31 8
31 94 10
32 33 10
32 95 10
33 96 10
33 97 9
35 36 1
36 37 10
36 40 4
36 99 7
36 101 9
36 102 1
36 103 10
37 38 8
37 42 1
37 104 9
38 39 10
38 42 4
38 105 9
40 41 10
40 43 7
40 104 7
41 44 1
41 52 2
41 89 5
41 99 2
41 101 3
41 106 2
42 54 10
43 44 9
43 45 9
43 108 10
44 45 6
44 89 7
45 188 10
46 47 7
46 55 9
47 48 9
47 55 4
47 109 9
47 198 1
48 49 9
48 50 7
49 50 3
52 53 10
52 62 1
52 121 6
53 62 7
53 97 7
53 122 7
54 105 10
55 56 8
56 57 9
56 58 10
56 59 7
56 60 8
57 60 6
57 61 8
57 123 7
58 59 2
58 60 3
58 124 10
59 61 6
59 124 5
59 125 8
60 61 2
61 126 3
62 63 3
63 64 7
63 69 8
63 122 6
64 65 9
64 127 7
64 128 8
65 66 9
65 67 9
65 129 8
65 130 1
66 131 2
66 132 7
66 133 6
66 134 5
67 68 8
67 131 3
67 135 9
68 70 7
68 73 7
68 134 7
68 135 5
69 121 8
69 136 9
70 71 7
70 133 7
70 137 7
71 72 4
71 74 1
71 138 5
71 139 8
72 73 1
72 78 3
72 140 9
72 146 1
73 147 8
73 149 5
74 75 7
74 138 10
75 76 7
75 79 8
75 80 7
75 150 7
76 77 10
76 84 1
76 150 7
76 151 3
76 152 3
76 182 5
78 82 10
78 146 9
79 153 7
80 81 7
80 83 9
80 147 7
83 95 10
83 149 9
83 154 9
85 139 10
86 87 10
86 88 7
88 155 10
90 157 7
94 157 8
94 158 7
96 130 8
97 98 10
98 127 9
98 130 4
98 136 9
99 100 5
100 101 6
100 103 10
102 104 10
105 199 8
106 107 7
107 108 7
109 110 10
110 111 8
110 113 7
110 119 9
110 120 9
111 112 3
111 113 4
111 114 1
111 115 5
111 117 4
111 120 3
112 115 9
112 116 8
112 117 3
112 118 10
112 159 9
113 114 6
113 115 7
113 116 4
113 117 4
114 116 3
114 117 3
114 118 6
114 119 10
115 116 7
115 118 2
116 118 3
117 120 9
119 120 7
124 160 8
126 160 9
128 132 9
128 161 8
129 131 8
135 162 9
138 159 8
140 141 7
140 152 7
141 142 9
142 143 7
143 144 10
143 145 9
145 146 8
145 151 10
147 148 7
150 163 7
152 163 9
155 156 7
157 158 5
160 164 8
164 165 9
165 166 10
166 167 9
169 183 10
173 174 9
174 175 7
176 177 8
177 178 8
177 179 10
177 193 9
178 187 10
