200 255 366.667
3
6
4
1
2
3
2
1
3
4
6
4
6
10
6
8
6
2
10
7
2
2
1
1
7
10
1
3
8
5
6
4
7
3
9
7
6
8
1
6
2
3
7
4
6
2
4
10
4
1
6
2
3
3
7
5
5
2
4
2
2
6
3
3
7
1
5
4
7
5
4
4
8
6
10
10
10
10
9
8
5
6
3
1
4
8
6
10
8
6
5
9
6
4
9
7
6
1
6
3
9
4
7
4
2
2
2
2
7
7
2
2
3
1
7
4
7
10
9
6
1
1
5
10
7
2
8
2
1
2
7
3
5
1
5
8
9
5
10
1
6
5
5
6
7
2
5
1
5
5
1
9
4
5
7
10
4
4
1
2
4
5
9
10
10
7
6
8
4
9
4
10
10
9
6
5
6
9
1
6
10
10
5
4
4
6
7
5
9
8
10
10
4
5
4
2
6
4
10
4
1 2 7
1 3 4
1 4 1
1 6 4
1 7 8
1 34 6
2 12 8
2 13 10
2 36 10
3 8 10
3 9 2
3 14 8
4 5 5
4 15 7
4 37 7
5 7 9
5 10 7
5 11 6
5 17 5
5 38 4
6 14 7
6 18 10
6 39 9
7 18 10
7 19 10
7 20 7
8 9 9
8 12 4
8 22 9
8 40 8
9 22 1
9 23 7
9 41 6
10 20 8
10 25 10
10 48 8
11 13 8
11 17 10
14 39 7
15 16 5
15 26 7
15 49 10
16 26 10
17 27 8
17 28 6
18 34 8
18 78 9
20 21 2
21 25 3
21 29 2
21 30 7
21 37 4
22 79 9
22 80 7
23 24 4
24 32 10
24 33 9
24 79 10
24 81 8
25 29 7
26 82 9
27 28 10
27 83 7
27 86 2
28 87 8
29 88 8
30 31 10
30 89 10
30 90 9
31 91 10
31 92 9
33 93 8
34 35 7
35 90 7
38 48 7
38 95 8
39 96 9
41 42 8
42 43 5
42 46 10
42 47 7
43 44 10
43 47 6
44 45 7
44 97 7
45 47 8
45 98 7
46 101 9
46 102 7
47 98 6
49 50 7
49 82 8
50 51 10
50 53 7
51 52 9
51 55 7
51 88 3
52 95 8
52 103 10
52 104 9
53 54 10
53 56 5
53 118 7
54 57 7
54 119 2
54 120 4
54 122 8
54 123 2
55 58 5
56 124 7
57 60 10
58 59 7
58 124 7
58 125 8
59 103 10
59 104 5
60 61 9
60 62 8
60 126 7
61 63 9
61 67 6
61 69 7
61 128 2
61 129 3
62 65 8
62 67 9
63 64 10
63 66 6
63 70 2
64 71 9
64 72 10
64 73 9
64 158 10
66 70 10
66 74 9
67 68 9
68 75 7
68 162 7
69 74 7
71 76 9
72 163 7
75 77 10
75 128 8
77 128 3
83 84 7
84 85 9
84 164 8
84 165 8
85 86 8
85 166 8
87 97 10
93 94 9
94 167 7
94 168 8
98 99 9
99 100 10
99 169 7
100 101 9
100 170 8
102 171 9
104 105 10
105 106 10
105 111 10
105 112 9
106 107 9
106 113 9
107 108 8
107 112 6
107 114 3
107 172 10
108 109 8
108 110 10
108 115 10
109 115 1
109 116 10
110 173 8
111 112 4
111 117 9
112 114 10
113 174 7
114 176 7
115 116 6
115 178 7
117 164 7
118 119 8
120 121 10
121 179 9
122 181 8
123 182 10
126 127 7
129 130 8
130 131 7
130 133 9
131 132 10
131 183 8
132 134 7
132 136 8
132 183 1
132 185 5
132 186 8
133 137 10
133 187 10
134 135 10
135 139 8
137 138 10
138 140 10
138 190 9
138 191 7
140 141 5
140 142 7
141 191 7
141 192 8
141 193 9
142 143 7
142 144 2
142 162 3
142 192 8
143 144 7
143 145 8
144 146 10
145 147 10
145 173 8
146 150 9
146 162 9
147 148 7
147 149 8
148 149 2
148 153 9
149 154 9
150 151 10
150 155 7
151 152 9
151 156 10
152 156 4
154 157 8
158 159 8
158 185 9
159 160 7
160 161 10
174 175 10
175 179 8
175 182 8
176 177 9
179 180 9
183 184 10
187 188 7
188 189 10
193 194 10
194 195 7
194 196 8
195 197 8
196 198 10
198 199 8
198 200 8
199 200 2
