200 205 366.667
3
1
1
2
1
3
1
1
2
2
3
3
2
2
1
1
3
3
2
1
1
2
3
3
2
3
3
2
1
3
2
1
3
2
3
3
3
1
1
1
3
3
2
1
1
3
1
1
1
2
1
1
1
3
1
1
2
2
2
3
2
7
3
3
3
3
3
2
2
1
1
2
3
2
1
1
3
8
3
3
2
2
1
8
2
3
3
1
7
3
2
3
1
1
2
1
2
2
1
2
2
10
3
2
2
1
2
2
10
1
3
2
1
2
2
1
2
2
2
2
3
3
1
2
3
1
1
2
2
2
3
3
3
1
3
1
1
2
1
3
3
1
1
1
3
2
1
1
2
3
3
3
2
2
1
1
1
3
1
3
1
3
1
2
2
1
2
1
9
7
8
1
9
9
9
7
8
7
2
10
10
8
8
7
1
8
7
9
8
10
7
10
8
3
2
2
3
3
9
10
1 2 9
1 3 10
2 4 10
3 5 9
4 6 10
5 7 8
6 8 10
7 9 9
8 10 10
9 11 8
10 13 10
11 12 9
12 14 10
12 15 9
13 16 10
14 17 9
15 18 10
16 19 10
17 20 8
18 21 9
19 22 10
20 23 8
21 24 8
22 25 8
23 26 10
24 27 8
25 28 9
26 29 8
27 30 8
28 31 10
29 32 10
30 33 10
31 34 9
32 35 10
33 36 10
34 37 10
35 38 8
36 39 9
37 41 9
38 42 10
39 40 10
40 44 10
40 45 9
41 47 10
42 43 9
43 48 10
43 49 9
44 50 10
45 46 8
46 52 9
46 53 10
47 55 8
48 56 9
49 57 10
50 51 10
51 58 3
51 59 10
52 60 9
53 54 8
54 62 9
54 63 8
55 64 8
56 65 9
57 66 9
58 67 8
59 68 8
60 61 10
61 62 1
61 69 9
63 70 8
64 71 9
65 72 9
66 73 9
67 74 9
68 75 10
69 77 8
70 79 8
71 80 9
72 81 10
73 82 10
74 83 10
75 76 9
76 84 8
76 85 9
77 78 8
78 84 2
78 89 10
79 90 8
80 91 8
81 92 10
82 93 10
83 94 8
85 86 8
86 87 10
86 89 2
87 88 9
87 95 9
88 96 9
88 97 8
90 98 10
91 99 10
92 100 9
93 101 10
94 102 8
95 103 9
96 104 10
97 105 8
98 106 10
99 107 9
100 108 10
101 109 9
102 109 8
103 110 10
104 111 8
105 112 8
106 113 9
107 114 10
108 116 9
110 117 8
111 118 8
112 119 10
113 120 9
114 115 8
115 121 9
115 122 8
116 123 9
117 124 9
118 125 9
119 127 10
120 128 8
121 129 10
122 130 8
123 131 8
124 133 10
125 126 9
126 134 9
126 135 10
127 136 8
128 137 8
129 139 10
130 140 9
131 132 10
132 149 10
132 150 10
133 151 8
134 152 9
135 153 10
136 154 10
137 138 9
138 155 8
138 157 9
139 159 9
140 141 10
141 142 9
141 160 9
142 143 9
142 144 10
143 146 10
143 148 8
144 145 10
144 161 10
145 163 10
145 164 3
145 165 8
146 147 8
146 168 10
147 170 10
147 171 10
147 172 9
148 174 8
148 175 9
149 176 9
150 177 9
151 178 10
152 179 10
153 181 8
154 182 10
155 156 10
156 183 10
156 184 10
157 158 9
158 184 2
158 185 10
159 187 8
160 188 9
161 162 10
162 189 10
162 190 9
163 191 9
164 192 10
165 166 9
166 167 10
166 193 10
167 194 8
168 169 9
172 173 10
179 180 9
185 186 8
190 192 9
194 195 9
195 196 10
196 197 8
197 198 8
197 199 9
198 200 8
