200 239 366.667
9
2
5
1
2
1
3
2
1
3
1
3
10
1
2
5
10
1
3
5
5
1
4
5
5
4
4
2
1
3
4
3
9
7
2
3
1
2
4
1
2
1
5
1
4
2
2
10
2
5
3
2
4
2
10
2
10
2
5
4
9
1
4
5
8
10
7
6
3
4
3
1
1
4
2
2
4
5
2
3
3
4
7
5
3
5
2
1
5
9
5
4
9
1
3
1
2
4
1
9
8
9
2
3
10
4
2
10
7
8
8
10
8
3
5
1
1
2
6
6
5
10
10
1
3
5
1
6
2
9
8
8
8
3
1
10
8
10
2
1
10
3
9
3
7
8
3
3
2
5
8
1
7
4
3
8
9
10
7
4
1
5
5
2
6
2
7
5
10
2
3
6
4
7
4
1
5
5
2
8
7
1
9
4
5
2
5
10
10
2
1
1
5
10
4
5
7
8
9
5
1 2 8
2 3 9
2 4 9
3 5 8
3 7 8
4 9 9
4 10 10
5 6 8
6 18 8
7 8 10
8 21 10
8 23 8
9 25 8
10 11 10
11 12 10
11 13 8
11 26 9
12 14 4
12 15 10
12 28 8
13 14 9
14 16 9
15 35 9
16 17 10
18 19 8
19 20 10
20 36 10
20 48 9
21 22 10
22 55 10
22 56 8
23 24 9
24 55 2
24 57 7
24 61 10
25 65 10
26 27 10
27 66 10
27 67 8
28 29 5
29 30 5
29 66 9
29 68 8
30 31 9
30 32 9
31 33 2
31 68 7
31 69 5
32 82 8
32 83 9
33 34 10
34 35 10
36 37 9
37 38 9
37 40 9
38 39 8
38 84 10
39 41 5
39 89 5
39 90 4
40 42 9
40 43 9
41 42 8
41 91 10
42 92 9
43 44 4
43 93 8
44 45 3
44 46 9
45 47 10
45 94 8
46 109 10
46 110 8
47 111 9
47 112 10
48 49 8
49 50 8
49 113 10
50 51 7
50 52 8
51 53 9
51 114 8
52 54 9
52 115 4
53 116 9
53 121 8
54 127 9
54 128 6
56 114 10
57 58 10
58 59 10
58 129 9
59 60 4
59 130 9
59 131 8
60 82 10
60 132 8
61 62 8
62 63 8
62 133 10
63 64 10
63 130 5
63 134 8
64 131 5
64 139 5
64 140 1
65 141 10
67 132 8
69 70 8
70 71 10
70 142 8
71 72 10
71 83 8
71 139 10
72 73 3
72 74 2
73 75 9
73 76 1
73 144 3
74 75 9
74 77 9
75 78 10
76 78 9
76 152 8
77 153 8
77 154 9
78 79 2
79 80 9
79 158 10
80 81 8
80 159 8
81 158 5
81 160 8
84 85 10
85 86 9
85 87 9
86 88 7
87 88 10
87 90 10
88 169 8
89 169 9
91 170 10
92 189 8
93 111 8
94 95 8
95 96 9
95 190 9
96 97 6
96 98 9
97 99 6
97 100 8
98 101 9
98 102 9
99 103 10
99 112 5
100 103 8
101 102 4
103 104 8
104 105 9
104 106 10
105 189 8
106 107 8
107 108 10
109 113 8
110 115 8
116 117 10
117 118 8
118 119 10
118 120 10
121 122 8
122 123 9
123 124 10
124 125 10
124 128 9
125 126 8
125 127 3
129 141 9
134 135 10
135 136 10
135 137 10
136 138 10
138 140 8
142 143 8
143 153 9
144 145 8
145 146 10
146 147 10
147 148 8
147 152 8
148 149 10
149 150 8
150 151 10
154 155 9
155 156 9
155 157 9
157 159 8
160 161 9
161 162 9
162 163 8
163 164 10
163 166 9
164 165 10
164 167 9
165 166 5
166 168 8
170 171 10
171 172 9
171 173 10
173 174 8
173 175 10
174 175 6
175 176 9
176 177 10
177 178 9
177 180 9
178 179 8
178 181 10
179 182 6
179 183 5
179 184 10
181 183 9
182 183 9
182 185 9
184 186 10
184 187 8
186 187 7
186 188 10
190 191 10
191 192 9
191 193 10
192 194 10
193 195 4
193 196 9
194 197 8
195 197 9
195 198 9
196 199 10
196 200 7
198 200 10
