73 108 133.833
1
2
4
6
2
3
2
3
7
2
7
9
9
7
8
4
3
1
10
8
6
4
7
10
6
2
7
1
4
6
3
4
4
8
4
7
2
1
9
8
7
6
10
7
7
10
6
7
5
4
5
2
5
10
7
5
4
5
10
7
4
4
6
5
10
10
10
10
10
5
9
9
8
1 2 6
1 11 7
1 15 8
2 3 9
2 5 6
2 12 5
2 20 5
3 4 10
3 6 10
3 21 9
4 5 6
4 12 1
4 22 1
4 23 2
5 6 8
5 7 5
6 7 10
6 8 9
7 9 1
7 24 8
8 10 7
8 13 10
8 25 9
9 10 7
9 41 2
9 42 1
10 43 7
10 44 10
11 14 9
11 22 8
12 45 10
13 41 7
13 42 10
14 20 9
14 23 8
15 16 7
16 17 8
16 18 7
17 19 8
17 21 7
17 46 7
18 47 1
18 48 5
18 49 2
19 47 7
19 48 9
24 46 9
25 26 9
26 27 9
26 32 2
26 45 7
27 28 9
27 30 9
27 33 10
27 60 9
28 29 8
28 34 7
28 43 7
29 30 2
29 33 3
29 61 6
29 62 3
30 31 6
30 34 4
31 34 10
31 35 8
31 63 5
32 36 7
32 61 7
33 72 10
35 37 8
35 39 9
36 60 9
36 62 8
37 38 8
37 64 7
38 40 7
38 65 8
38 66 10
39 40 7
39 64 2
40 67 8
44 63 10
49 50 7
50 51 7
50 55 2
50 68 7
51 52 4
51 53 1
51 55 3
52 54 5
52 56 9
52 57 7
52 69 7
53 54 9
53 57 7
53 70 7
53 71 1
54 55 9
54 65 7
56 58 10
56 67 7
57 73 10
58 59 10
58 70 7
59 69 9
59 71 7
66 68 7
